 # Version information for this restart file 
 # current date 2022-11-29 21:14:02.092
 # current working dir /scratch/work/courses/CHEM-GA-2671-2022fa/wz2449/main/comp-lab-class/Week12/Runs/Water
 # Program compiled at                              Sat Dec 12 18:27:15 EST 2020
 # Program compiled on                                         cs001.nyu.cluster
 # Program compiled for                                                nyu-intel
 # Source code revision number                                       git:8c64c6e
 &GLOBAL
   PRINT_LEVEL  LOW
   PROJECT_NAME water_aimd_1ns_every0.5fs
   RUN_TYPE  MD
   WALLTIME 21600
 &END GLOBAL
 &MOTION
   &GEO_OPT
     OPTIMIZER  BFGS
     MAX_ITER  100
     MAX_DR     3.0000000000000001E-03
     &BFGS
     &END BFGS
   &END GEO_OPT
   &MD
     ENSEMBLE  NVT
     STEPS  2000000
     TIMESTEP     4.9999999999999994E-01
     STEP_START_VAL  2387
     TIME_START_VAL     1.1934999999999570E+03
     ECONS_START_VAL    -1.1023558357480233E+03
     TEMPERATURE     3.0000000000000000E+02
     &THERMOSTAT
       TYPE  GLE
       REGION  MASSIVE
       &GLE
         NDIM  5
         A_SCALE     1.0000000000000000E+00
         A_LIST     1.8595758612559999E+02    2.7263853498399998E-01    1.1526100454610001E+01   -3.6414578262600003E+01 \
             2.3173375816020001E+02
         A_LIST    -2.7809524712060002E-01    8.5951591808710006E-05    7.2189048017650004E-01   -1.9844539343859999E-01 \
             4.2409257583420001E-01
         A_LIST    -1.4825808131210000E+01   -7.2189048017650004E-01    1.3590902121280000E+00    5.1498896280349999E+00 \
            -9.9949268450990001E+00
         A_LIST    -1.0372189126880000E+01    1.9844539343859999E-01   -5.1498896280349999E+00    2.6661910891169999E+01 \
             1.1507715495310000E+01
         A_LIST     2.1801346360420001E+02   -4.2409257583420001E-01    9.9949268450990001E+00   -1.1507715495310000E+01 \
             3.0958394565589998E+02
         &THERMOSTAT_ENERGY
              -6.8252713615683273E-03
              -1.3010946703767058E-03
               2.0357768743627984E-04
               7.5070767823119666E-03
              -2.0667908818856804E-02
               8.6290548190525122E-03
              -4.5511638333521160E-03
              -3.2187577138866200E-03
               1.9246474853032360E-02
               5.0957398011139583E-03
               1.3583279479363441E-02
               2.6334635760512566E-03
              -6.0310871736208426E-03
              -5.1401929897804746E-03
              -3.3860709700703614E-03
              -7.0903931894474113E-03
               1.7732987224397926E-02
              -9.6148744167491953E-04
               4.3640516178713789E-03
              -3.3923056407977182E-03
              -5.0984603738934682E-03
               4.9653303504583520E-03
              -6.2943030421689777E-03
              -4.1789682534234393E-03
               1.9968704504326712E-03
               3.2657443170370191E-03
               9.1812459443211848E-03
               1.5660049304025508E-03
               1.2266565080626528E-02
               2.9209975443788023E-03
               1.8816327134965551E-03
              -5.5602192702763282E-03
               2.4516610766971304E-03
               1.9955581823036766E-03
              -1.6721929817808002E-02
               1.9903167122916975E-02
               1.1717914118478002E-03
              -4.2671575655885488E-03
              -3.2103807572787910E-04
               2.9439255623257407E-03
              -3.9066292824451124E-03
              -4.8935060640676728E-03
               5.0966754511180311E-03
               6.6776163975230847E-03
               9.9417468268277447E-04
               3.3521558438119104E-03
              -1.6857101858790368E-03
               5.9167293200731294E-03
               7.3748119020026837E-03
              -2.1970823945124452E-03
               5.7502446898019131E-04
               2.7819438218458035E-03
               3.8952196023841596E-03
              -5.7312794294510777E-03
              -4.6981624970182578E-03
               3.4235213603545605E-03
              -6.3456841887532100E-03
              -3.9600145634202657E-03
               3.2306343366852409E-03
               1.4010884927142184E-02
               2.5921319025641581E-03
              -8.7048236573931993E-03
               1.4974662957061935E-02
              -3.9140393203748085E-03
               3.7770505365676398E-03
               6.1659111985950671E-03
              -4.3294512307752823E-03
               1.8136148624027730E-03
               1.8508200060935360E-02
              -1.4161878432357980E-03
              -3.5185007954585124E-03
              -7.5452677328080760E-03
               1.0343112892777378E-03
               3.5894823137010792E-03
              -1.7349233429729215E-03
              -9.2610622061581136E-03
               9.8995406123825735E-03
              -2.7856447793638693E-03
               2.8582279893356616E-03
              -1.0761329323731724E-02
               2.3424171496740444E-02
              -7.7736394698962345E-03
               2.2793933345600752E-03
               7.9322771723637628E-04
              -1.6378766695149304E-04
               6.0339594259466185E-03
               3.7320002959811381E-03
              -1.9284402638383583E-03
               4.4031795706248799E-03
               3.6312074050578002E-03
               3.8407070460358744E-03
              -7.5784100569152128E-03
               9.9533441680847191E-04
              -8.1415426466348046E-03
              -5.4645016282916167E-03
               4.5955859200868289E-03
               1.1578228444532733E-02
              -8.8098080222915622E-04
               4.1384731901147314E-03
              -2.0890546924809917E-03
              -3.8607309438549656E-04
              -7.5569695522003022E-03
               7.1104768765630315E-03
              -5.4260805652619828E-03
               1.1082742380744122E-03
               1.2722474581423001E-02
               3.3331295407287289E-04
              -5.5332774093029271E-03
              -3.3297304474814706E-03
              -6.7079699260391146E-03
               2.8801508856495677E-03
               6.5891836193989204E-03
              -3.6949449912489205E-03
              -2.0278768901350378E-03
               1.0293815119835337E-02
               8.3693160521803520E-03
              -1.7874795545829037E-02
               6.1417061772310712E-03
               6.5897613440776704E-03
               8.7450744858411419E-03
               9.3739920488763590E-03
              -4.3558531546174228E-03
              -5.0365810850750608E-04
               7.3383817394489358E-03
              -1.0376410983022883E-02
              -4.0480854490695271E-03
               5.0356847529468536E-03
               1.1340789595941014E-03
              -6.1746852065239239E-03
               6.7744416821515618E-03
              -4.1027291257883349E-03
               6.5866665901206005E-03
              -1.4890839850005158E-02
               8.0482150996906664E-03
              -4.0336637779915278E-03
              -6.3572753093893506E-04
               1.3058069870055778E-03
              -4.2498726260968489E-03
               3.1742037938563557E-03
              -2.0301979318822633E-03
               4.0487244242131230E-03
               1.8140612092594566E-03
               2.0654212230320428E-02
              -4.6284350080700023E-03
              -3.9589294468100576E-03
              -2.8310165583125065E-03
               4.0061042905560331E-03
               1.4940738298209445E-02
               5.0433677152426516E-03
              -4.6480030327279882E-03
              -2.0768608754852820E-02
               3.9415352523999936E-03
               3.0867521928918400E-03
              -1.1806069171837880E-02
               1.1432879742452417E-02
              -1.8052480131683891E-03
               1.4024966783071481E-03
              -5.0669125520188558E-03
               4.2882007712207234E-03
              -1.3076930551417483E-03
              -9.5030941303313986E-03
              -8.7890803204535347E-03
              -1.9607862242845210E-03
               7.6713955591684914E-04
               9.5078952265461852E-03
               1.3088249171257598E-02
              -2.1685772503102856E-03
              -2.0783141884862123E-02
              -6.4297807079333148E-03
               1.5621135862517432E-02
              -2.1748447676420172E-03
              -3.7580831923972051E-03
               5.5806730885902033E-03
              -2.1121080450826348E-03
              -6.8104376131109612E-03
               4.3278195067810443E-03
              -1.2967967065243695E-02
              -2.5420883494031742E-04
               1.6474907120510793E-03
               6.9659905432516850E-03
              -4.3871840090863277E-03
               2.4446276972483836E-03
               9.2916792384716111E-03
              -1.8758410899159028E-02
               1.4418054126765256E-02
               2.9481446925900606E-03
              -7.8674598875648379E-03
               1.0163242803154688E-04
              -3.0154128259009152E-03
              -9.3375273118448203E-04
               2.4638392144087661E-03
              -9.9997310263364890E-04
              -9.6204534618166658E-03
               4.2181651511163263E-03
               8.4065173062141795E-03
              -4.9765203032153364E-03
              -6.7444928967028157E-03
               6.1127440758298917E-03
              -4.3437359919395926E-03
              -3.3115991219958350E-03
               4.4863889874647222E-04
               5.0497531777859473E-04
               1.7801882679069656E-02
              -7.7117493374438866E-03
              -1.4890421216344500E-03
               5.2104770843140582E-03
              -1.4083241086280396E-02
              -2.2584450271537111E-03
              -2.3005605914425391E-03
              -2.6419443768159346E-03
               1.2259485207729053E-02
              -6.7183593924773077E-03
               8.3178083707791707E-03
              -1.9094130186471606E-03
               2.9345175033212330E-03
              -1.3906228891418757E-04
              -1.1946513587782027E-02
               8.0288683922777101E-03
               4.0711835321310015E-03
              -1.5766672106818546E-02
              -6.4252503579976389E-03
              -1.4652694522672039E-03
               7.8789297373961747E-04
               1.5296680445061397E-02
               2.7521280934617890E-03
              -8.6424451099576601E-04
               3.1763671648514804E-03
               9.3314747131405769E-05
               7.4348419410023795E-03
               4.1118801021992214E-03
              -1.0741846860269341E-02
              -4.8237098742337494E-03
               9.1020048467417396E-03
              -1.0339936133965576E-02
               2.9725330086151211E-03
               5.5190018497374817E-03
              -8.3158057614948831E-04
              -5.2616864732846899E-03
               1.1928064842431212E-02
               9.7644447441952113E-03
              -7.4719653417510907E-03
              -7.5060526361812908E-03
              -1.1323099352403406E-03
              -1.4391157909093152E-03
               4.0607593284347340E-03
               4.1587763122423486E-03
               5.0337415835718605E-03
              -5.7073776843818147E-03
               3.2540713301177481E-03
              -1.8737813078336112E-03
               1.6463832142353195E-03
              -1.1357106448542431E-02
              -8.2126797879728628E-03
              -6.7761904027658785E-03
               4.9670469360779445E-03
               1.6660563090422382E-03
               7.2232786811713811E-03
              -5.8581522449674354E-03
               1.4297050107997764E-02
              -1.8833956390111865E-02
               1.9311898942627210E-02
               2.7411604434136312E-03
               1.3053331579661405E-03
              -5.1038438458017588E-03
               8.5520914544948562E-03
              -5.2948025524767565E-03
              -1.2052019238163064E-03
              -6.1178759827791749E-03
              -5.8805170528135045E-03
               1.0246278190863160E-02
              -4.9832847670580457E-03
              -4.9576620570593978E-03
              -1.0829333409877700E-03
               1.1719477185011274E-02
               5.7116484334246717E-03
              -3.6480396626209963E-03
              -3.3654495884377411E-02
               2.4764254246806297E-02
              -2.0848813998633180E-03
               1.4761663274164073E-02
              -1.0496866618217700E-02
               4.2249960846687428E-04
               2.4465712093238116E-03
               2.1280159731980702E-06
              -1.0305545933870844E-03
              -2.3258810883338612E-03
               1.7670863733561637E-03
              -1.0775509413699699E-02
               5.3350809725024749E-04
              -3.0528752600354487E-04
              -3.8387238927633243E-03
               1.3589466749287744E-02
              -2.6292602789907268E-03
              -6.6744487388278907E-03
               8.9067036642157590E-03
               1.1397605207728884E-02
              -1.9209178485300939E-02
              -2.8195369899644942E-03
              -9.1965901594319409E-03
              -1.1065955828782111E-03
              -1.5077214041567704E-02
               8.7106818578276714E-03
               5.9556710052122075E-03
              -2.9578507662594909E-03
               7.8283616613060037E-03
              -5.1033483487436335E-03
               8.0258608519498886E-04
              -1.6115174235291673E-03
               1.4225036684746434E-03
               1.2671879637612016E-02
              -8.1870761208022516E-03
              -4.8798238188740633E-03
              -3.5463218067154668E-03
               1.4566293296927669E-02
               3.7679054343425565E-03
               9.7731009502834872E-03
               4.6454499854181521E-04
               3.6662329570571672E-03
              -9.1989488871473749E-03
              -7.4935650696762843E-04
               1.4147123056387483E-02
              -1.7239538619437420E-02
              -6.1599584045328110E-03
               9.4612083939421537E-03
              -4.3866658084306285E-03
               1.2112193483187903E-02
               2.2818549249671643E-03
               1.5283107186712898E-03
              -6.2242620082642881E-03
               1.4736077494307035E-03
               7.9920636986145549E-04
              -1.3550212367287059E-02
               6.6394781642593464E-03
              -2.5146766268151414E-03
               5.3078239950591303E-03
               9.6210018301106613E-03
               1.6202252803541019E-02
               1.7087035669206721E-03
              -1.8652827036563794E-02
               1.6304377052721704E-02
               3.5014513583811859E-03
              -8.8665969240305682E-03
               4.3870362082027289E-03
              -8.4777356517005062E-03
              -1.8411443399713528E-03
              -1.0309414049958250E-02
               4.5158212620655990E-03
               5.4733591767056429E-03
               9.2017779212712446E-03
              -4.3031226458369789E-03
              -9.6595527906058866E-04
               1.2139785008853528E-03
              -7.0114697329497055E-03
               5.9022377314575062E-04
              -1.4057786409330360E-02
               1.3499073127624110E-02
               6.4342805081891987E-03
              -7.1879165833896334E-03
              -1.2973677265236013E-02
               1.0762440360250852E-02
               1.9535850504165163E-03
              -5.7192064288544599E-03
              -1.1399546998334309E-02
              -4.8697464067660777E-03
              -6.5600621068994799E-03
               2.1042147479560503E-02
               6.6708430077740393E-03
              -8.2971766598451454E-03
              -1.1029508212116613E-02
              -4.7741895981770243E-03
               2.7539387787980717E-03
              -2.2119116900252652E-03
               4.3690715726645481E-03
               7.1696342277898489E-03
              -4.6906101840061961E-03
              -3.0137021062911660E-03
               6.7484008799990579E-03
              -9.8156160514231115E-03
              -1.5921780035606057E-03
               8.2523363840544105E-03
               4.2302799204926387E-03
               6.8457173569070695E-04
               1.7839913574018925E-02
              -6.9146290129820263E-03
              -2.1207027837272845E-02
               5.3675153099001279E-03
               2.9814592022782433E-03
              -2.3742054958794546E-03
              -5.0756667294804920E-03
               9.9268215427650796E-04
              -1.1194533545245203E-02
               1.2906032589099089E-02
              -1.8272294205026038E-03
              -5.0699770489783134E-03
              -1.8902989230643462E-03
              -6.5445071335784404E-04
              -4.4482004696079292E-03
               8.9563377829027496E-03
               6.6284348592164878E-03
              -2.2054001303573767E-02
               1.1741326840567426E-02
               1.2847233101550936E-02
              -1.6306826629970163E-02
              -4.1792978872576686E-03
               2.4386537945393021E-02
               1.9384425241482273E-03
               8.3106307246264884E-03
               7.9511150657183231E-03
              -4.4995924041038044E-03
               5.2063331597528451E-03
               1.7039918524207830E-03
               1.2829322293645201E-03
              -9.8664721217199807E-03
               1.5283043550210363E-04
              -2.2678883876789697E-03
              -5.0163873959245108E-03
               7.4875380811393801E-03
              -7.4535730710468713E-03
              -1.9882715328796274E-03
               9.7213566644882964E-03
              -2.6085248196209354E-03
              -5.1233684222472048E-03
               3.4688807924064227E-03
              -2.2218989876123512E-03
               5.0590866574257154E-03
               1.7016043502332933E-03
              -1.3477491986801326E-02
               4.6172008099501080E-03
              -9.1593963551667799E-03
               1.8741925630897690E-03
               1.2563834547288230E-02
              -5.0662247883998153E-03
              -4.6137218086592180E-03
              -7.0002161757683357E-03
               5.3096652570632230E-03
              -1.3320636199562724E-02
              -5.0458967537004452E-03
               1.3631262932166538E-02
               4.0149468460522076E-03
               1.0478172089717321E-02
              -2.3826007928777138E-02
              -1.6429778192838158E-02
              -1.6789784239644602E-04
               7.9158640235804777E-03
              -9.9357234364832112E-03
              -9.2592815182113639E-03
               1.8892231358273563E-03
               6.8448591204962493E-03
               1.6869332202704517E-02
              -6.4267570028716638E-03
              -6.1717968555914287E-03
              -6.2624476598708524E-03
               6.2345638759158902E-04
               9.8161715437407610E-03
              -1.5945084589069958E-02
              -2.1834629526623285E-03
               2.6722474909919948E-02
               2.1474821462061371E-03
              -2.3341335327638116E-02
              -6.7456436210682758E-03
               4.1933561985923766E-03
              -1.0282130046949196E-03
               9.3413647045955544E-04
               4.8363527750001992E-04
              -2.7220895925260977E-03
               6.7794453796961984E-03
              -1.1432654076685993E-02
               2.6855442944810739E-03
              -2.7504462771110582E-03
               1.1834919877907055E-02
               3.3538109697589056E-03
               6.8724797985817510E-03
              -6.8161135793209735E-03
               1.1239604011029835E-03
              -1.1418734698143409E-02
               1.2367424242695040E-02
               1.2064586895403248E-02
               2.8672908535287713E-03
              -1.2042975251748086E-03
              -2.9205143103965458E-04
              -5.7112713292663958E-03
               6.8341300523442157E-03
              -5.6910372306971397E-04
               7.5628209686697612E-03
              -5.4523890691681818E-03
              -2.1309144491840188E-03
              -4.1476613530597893E-03
              -2.6739073614462168E-03
               1.7146450659945414E-04
              -1.1466252117802458E-03
              -4.7456633245044667E-04
               2.8224951367578212E-03
              -1.2156070956323320E-03
               7.9908665066395768E-03
              -1.3150917007326877E-02
              -5.4614533615937870E-05
               4.6309117635785126E-03
               1.4903050526220950E-03
               1.6054656761994679E-03
               3.6055160396289299E-03
              -4.5031189870700129E-04
              -2.1261114958997657E-03
              -1.3743168180490862E-02
              -2.2092760973024604E-03
               3.3822841719122238E-03
              -9.6826695078427363E-03
               3.6764065279988670E-03
               3.6674354134742407E-03
               6.4981037516848630E-05
              -2.5603643855119972E-03
              -1.8497588439189965E-03
               1.4524935149749503E-03
               1.6753264856051600E-03
              -5.5651300230041782E-03
               1.8134371634369008E-04
              -2.5764307763531382E-03
              -2.4307860237998257E-03
              -4.4211421202943902E-03
               3.0607720387957919E-03
               7.3701244344677045E-03
               1.7960514426310578E-03
              -1.6464096716843596E-02
              -1.2719935453158689E-02
               1.7644800672324816E-02
               5.3019005620174560E-03
              -1.2130735483505540E-05
              -2.4455464586555925E-03
              -1.4485949355461126E-02
               6.6178335327479994E-03
              -2.6478796954009062E-03
              -1.2835882862437462E-02
              -3.6149285672282486E-03
              -7.3730944766859634E-03
               1.5574091826080258E-03
              -3.4407487745278399E-03
               1.7620131083528525E-02
              -2.6017520407768460E-03
              -4.9403491438308354E-03
              -7.4912050876553031E-03
               1.5458600012393795E-03
               3.0306358035296658E-03
               1.6586278507644268E-03
               8.5420089363814748E-05
               5.0460075938659598E-03
              -1.1696835368301300E-02
               1.1963616405907285E-02
               8.3590278238246437E-03
               1.4275300385805378E-03
              -1.4447597095771716E-03
              -3.2052062410225309E-04
              -1.3470529421939948E-03
              -7.9267207059979209E-04
               9.4341718960583767E-03
               9.4018852261482620E-03
              -7.9289010881574678E-03
              -7.7091152928130792E-03
              -1.8310990157646275E-03
               3.2961697844030849E-03
              -4.9103762537280719E-04
               4.2198829081988532E-03
               1.5798346543014975E-03
              -6.4128142949639363E-03
               9.2419798395564825E-03
              -9.9434067616251190E-03
              -1.6564068361665304E-03
               2.0442301262273303E-02
              -2.1670717395400258E-04
              -3.3607052973836727E-04
               7.9937546332021926E-03
              -3.2461155283204112E-03
              -6.9041066975282003E-03
               3.3314221761796109E-03
               1.9007692271423785E-04
               5.3243163669667208E-03
              -2.8496099346222376E-03
              -6.8729167209195937E-04
         &END THERMOSTAT_ENERGY
         &RNG_INIT
Wiener process for Thermostat # 1        1 F T T  -8.5731354306905605E-01        2743823102.0        2452439954.0         832694369.0          50547795.0         492202454.0        2545165216.0             12345.0             12345.0             12345.0             12345.0             12345.0             12345.0             12345.0             12345.0             12345.0             12345.0             12345.0             12345.0
Wiener process for Thermostat # 2        1 F T T   1.9661681702567602E-02        1923842925.0        2415721225.0        2036775820.0        1231423946.0        4171623171.0         138182845.0        3692455944.0        1366884236.0        2968912127.0         335948734.0        4161675175.0         475798818.0        3692455944.0        1366884236.0        2968912127.0         335948734.0        4161675175.0         475798818.0
Wiener process for Thermostat # 3        1 F T T   8.4629544598519180E-01        3258790737.0        1612804434.0         195245935.0        2636635767.0        3229544492.0        1987270648.0        1015873554.0        1310354410.0        2249465273.0         994084013.0        2912484720.0        3876682925.0        1015873554.0        1310354410.0        2249465273.0         994084013.0        2912484720.0        3876682925.0
Wiener process for Thermostat # 4        1 F T T   5.6580483026072736E-01        3665199571.0        3286165870.0         940314370.0        3414459785.0         548206006.0        2677248314.0        2338701263.0        1119171942.0        2570676563.0         317077452.0        3194180850.0         618832124.0        2338701263.0        1119171942.0        2570676563.0         317077452.0        3194180850.0         618832124.0
Wiener process for Thermostat # 5        1 F T T   5.4918490527662511E-02        3130979833.0         647285236.0        2665011659.0         357594732.0        1487877554.0        1349393343.0        1597262096.0        3906379055.0        3312112953.0        1016013135.0        4099474108.0         275305423.0        1597262096.0        3906379055.0        3312112953.0        1016013135.0        4099474108.0         275305423.0
Wiener process for Thermostat # 6        1 F T T   5.0910610226742992E-01        1408219321.0        3707300971.0        2710951451.0        2760967410.0         480962918.0        3406429680.0          97147054.0        3131372450.0         829345164.0        3691032523.0        3006063034.0        4259826321.0          97147054.0        3131372450.0         829345164.0        3691032523.0        3006063034.0        4259826321.0
Wiener process for Thermostat # 7        1 F T T   1.3394167222641254E-01         258466421.0         716802267.0        1320163275.0        2767783559.0        1331670799.0         660325724.0         796079799.0        2105258207.0         955365076.0        2923159030.0        4116632677.0        3067683584.0         796079799.0        2105258207.0         955365076.0        2923159030.0        4116632677.0        3067683584.0
Wiener process for Thermostat # 8        1 F T T   1.1373677889988078E-01        3221541448.0         466279640.0        4248484520.0        4170013587.0        2570744188.0        3026290338.0        3281794178.0        2616230133.0        1457051261.0        2762791137.0        2480527362.0        2282316169.0        3281794178.0        2616230133.0        1457051261.0        2762791137.0        2480527362.0        2282316169.0
Wiener process for Thermostat # 9        1 F T T   1.8754574217904291E-01        1639251654.0        3631858493.0        2892035474.0           4195797.0        1221422861.0         248704627.0        3777646647.0        1837464056.0        4204654757.0         664239048.0        4190510072.0        2959195122.0        3777646647.0        1837464056.0        4204654757.0         664239048.0        4190510072.0        2959195122.0
Wiener process for Thermostat # 10       1 F T T   7.7199991081032160E-01        1647702189.0         461238307.0        2993637533.0        1350759968.0        1019177875.0        2443763598.0        4215590817.0        3862461878.0        1087200967.0        1544910132.0         936383720.0        1611370123.0        4215590817.0        3862461878.0        1087200967.0        1544910132.0         936383720.0        1611370123.0
Wiener process for Thermostat # 11       1 F T T   1.2752084725372927E+00        2416305258.0         166365379.0        3927330293.0        2763849817.0         898876287.0        4112919872.0        1683636369.0         362165168.0         814316280.0         869382050.0         980203903.0        2062101717.0        1683636369.0         362165168.0         814316280.0         869382050.0         980203903.0        2062101717.0
Wiener process for Thermostat # 12       1 F T T  -1.0184769660677668E+00        2332806959.0         713395284.0        3201610077.0        4171416728.0        2880354640.0        3289950413.0         272317999.0         166758548.0         310112982.0         201045826.0        1680231254.0         118290799.0         272317999.0         166758548.0         310112982.0         201045826.0        1680231254.0         118290799.0
Wiener process for Thermostat # 13       1 F T T   7.8672061857041153E-01        3801382787.0        1902992119.0        2902050307.0        1086591685.0        2221242584.0        1067765584.0        2245755202.0        1652682525.0        2865544364.0         721509566.0         209733568.0         592362218.0        2245755202.0        1652682525.0        2865544364.0         721509566.0         209733568.0         592362218.0
Wiener process for Thermostat # 14       1 F T T  -7.6647367138208508E-02        2653629553.0         478818271.0         187628089.0        2927843744.0        2711101565.0        2317376169.0        3003961408.0        3529909391.0          14538032.0        3603919910.0         566682685.0        1235016484.0        3003961408.0        3529909391.0          14538032.0        3603919910.0         566682685.0        1235016484.0