 # Version information for this restart file 
 # current date 2022-11-29 21:13:08.774
 # current working dir /scratch/work/courses/CHEM-GA-2671-2022fa/wz2449/main/comp-lab-class/Week12/Runs/Water
 # Program compiled at                              Sat Dec 12 18:27:15 EST 2020
 # Program compiled on                                         cs001.nyu.cluster
 # Program compiled for                                                nyu-intel
 # Source code revision number                                       git:8c64c6e
 &GLOBAL
   PRINT_LEVEL  LOW
   PROJECT_NAME water_aimd_1ns_every0.5fs
   RUN_TYPE  MD
   WALLTIME 21600
 &END GLOBAL
 &MOTION
   &GEO_OPT
     OPTIMIZER  BFGS
     MAX_ITER  100
     MAX_DR     3.0000000000000001E-03
     &BFGS
     &END BFGS
   &END GEO_OPT
   &MD
     ENSEMBLE  NVT
     STEPS  2000000
     TIMESTEP     4.9999999999999994E-01
     STEP_START_VAL  2384
     TIME_START_VAL     1.1919999999999570E+03
     ECONS_START_VAL    -1.1023558357480233E+03
     TEMPERATURE     3.0000000000000000E+02
     &THERMOSTAT
       TYPE  GLE
       REGION  MASSIVE
       &GLE
         NDIM  5
         A_SCALE     1.0000000000000000E+00
         A_LIST     1.8595758612559999E+02    2.7263853498399998E-01    1.1526100454610001E+01   -3.6414578262600003E+01 \
             2.3173375816020001E+02
         A_LIST    -2.7809524712060002E-01    8.5951591808710006E-05    7.2189048017650004E-01   -1.9844539343859999E-01 \
             4.2409257583420001E-01
         A_LIST    -1.4825808131210000E+01   -7.2189048017650004E-01    1.3590902121280000E+00    5.1498896280349999E+00 \
            -9.9949268450990001E+00
         A_LIST    -1.0372189126880000E+01    1.9844539343859999E-01   -5.1498896280349999E+00    2.6661910891169999E+01 \
             1.1507715495310000E+01
         A_LIST     2.1801346360420001E+02   -4.2409257583420001E-01    9.9949268450990001E+00   -1.1507715495310000E+01 \
             3.0958394565589998E+02
         &THERMOSTAT_ENERGY
              -6.3903760504787199E-03
              -1.2221989405987069E-03
               9.4348672941081669E-05
               7.1806508048074813E-03
              -2.0631322674568093E-02
               8.6871890528977171E-03
              -4.0226297916570288E-03
              -3.3023605348157484E-03
               1.8464994442379017E-02
               3.7364863520902548E-03
               1.3212071535908448E-02
               2.5622029152314730E-03
              -5.8322263072496071E-03
              -5.8340905172904476E-03
              -3.2765686517877094E-03
              -7.4474204035690147E-03
               1.7769464128249830E-02
              -1.2418305229422481E-03
               5.4178162446382227E-03
              -3.3875989940810275E-03
              -4.8049248911168994E-03
               4.9183660974224889E-03
              -6.2782457925411195E-03
              -4.1667620309811110E-03
               1.9078733001955733E-03
               4.1914103290504679E-03
               8.9074763640141566E-03
               1.3695258403727719E-03
               1.2731206734933709E-02
               2.5595254007272326E-03
               2.0279601084496361E-03
              -5.2972131180132357E-03
               2.3508621298858091E-03
               1.9583837772240804E-03
              -1.6481418304975164E-02
               1.9434666589237155E-02
              -7.1536085573408468E-05
              -4.3772211239926631E-03
              -3.0709409191287753E-04
               3.4373235104202477E-03
              -4.8197912319544707E-03
              -5.1036539983224695E-03
               4.9172968706128230E-03
               6.3230950684384580E-03
               1.0899839774896915E-03
               3.3929530585200727E-03
              -1.6793038143251590E-03
               5.8660883357310751E-03
               6.4047151868626756E-03
              -2.1408610104115904E-03
               6.3931924155344213E-04
               2.9870418494278936E-03
               3.3219264487738048E-03
              -5.7165565165509368E-03
              -5.6590442837968612E-03
               3.8066979124267036E-03
              -6.4555423382184757E-03
              -3.9070543860988518E-03
               3.2697562506205551E-03
               1.4433734122801049E-02
               2.0036327146269158E-03
              -8.7923851438322428E-03
               1.4833573449012009E-02
              -4.5300536433163369E-03
               3.6789036717855966E-03
               5.8696693894032190E-03
              -4.1822525643754405E-03
               1.8369982157649457E-03
               1.8598206234466914E-02
              -1.2611888037128186E-03
              -4.5117378223526738E-03
              -7.6488875955746287E-03
               1.8863891709340577E-03
               3.4248375130653199E-03
              -1.7170221000578469E-03
              -9.5120348618768294E-03
               8.0191678952774813E-03
              -2.8489653218881691E-03
               3.4298161512517139E-03
              -1.0759633530466771E-02
               2.3666555607492312E-02
              -7.7087037831075692E-03
               3.6747961615729756E-03
               7.6278285808819115E-04
              -1.3514519769855021E-03
               6.4421121951943753E-03
               3.7788014512213988E-03
              -1.8222231767861031E-03
               4.5503971686240334E-03
               3.3713902051795684E-03
               4.5152650573532889E-03
              -7.4174398161567017E-03
               1.1072497996324408E-03
              -7.4256767105474559E-03
              -5.6213087241601418E-03
               4.7358036048188142E-03
               1.1429243982256287E-02
              -8.0443922816088331E-04
               2.8958029689033936E-03
              -2.2320768785093941E-03
              -3.7509270280374201E-04
              -7.5503066412640641E-03
               7.0803131793955882E-03
              -5.4631539631309128E-03
               1.0735448726794342E-03
               1.2481498499045623E-02
               1.1414056125958298E-03
              -5.5921620665181403E-03
              -4.7394669460888491E-03
              -6.7036440329384843E-03
               2.6239312002221743E-03
               5.7789166572132684E-03
              -3.7014599346196649E-03
              -1.6917611754735950E-03
               9.6082265660690086E-03
               8.5397064133225925E-03
              -1.8013956779200004E-02
               6.6066088506181895E-03
               6.5537775699369841E-03
               8.8261552196746366E-03
               9.8603536311611256E-03
              -4.2633482486949337E-03
              -5.0801388774240517E-04
               6.8188842354299150E-03
              -8.7024128486680452E-03
              -4.0048951862033935E-03
               5.8741202061011076E-03
               7.3063599316280047E-04
              -6.6459244165233645E-03
               7.5242173104498452E-03
              -3.8966749249560373E-03
               6.4849804508379629E-03
              -1.4797780612959589E-02
               7.7812626084795573E-03
              -3.8822843607168949E-03
              -4.2017866948728961E-04
               1.2607692611765046E-03
              -4.5961791579718853E-03
               3.2499316976224105E-03
              -2.5235598111726489E-03
               3.9983681671008275E-03
               1.6917708332376540E-03
               2.0706862651074655E-02
              -4.9836421142458289E-03
              -4.2570665566500458E-03
              -2.6414935063723529E-03
               3.9415686148391391E-03
               1.3565218071729820E-02
               5.0679494226685594E-03
              -4.4049576361213727E-03
              -2.1052408592981516E-02
               4.1127348757327336E-03
               3.6186011973821921E-03
              -1.1991426309485432E-02
               1.1472837235127088E-02
              -1.9783222908730026E-03
               1.4122414779932915E-03
              -4.4595820950835670E-03
               4.1912647722192799E-03
              -1.0434039369190012E-03
              -9.6232337889531946E-03
              -7.3688802830388419E-03
              -1.9601370308183390E-03
               1.4724559135805490E-03
               9.0888952851292878E-03
               1.2054587092800589E-02
              -2.2006946326965579E-03
              -2.1366429159720354E-02
              -6.7277264605409941E-03
               1.5583391097507822E-02
              -1.2320073187380494E-03
              -3.7672479980211896E-03
               5.5472509592131057E-03
              -1.9735442428492761E-03
              -6.2157611135337590E-03
               4.3889967421814760E-03
              -1.2888930721034338E-02
              -2.7560930313047716E-04
               1.4262583737195632E-03
               6.8617323885802354E-03
              -4.3615198513268548E-03
               2.5217170212243514E-03
               9.9557330041613115E-03
              -1.8931924783415828E-02
               1.3553728491311732E-02
               2.3978211370990171E-03
              -7.6323277535329821E-03
               1.1826057095603557E-04
              -2.4981256581155624E-03
              -1.0200719124801956E-03
               3.2361613044579809E-03
              -8.9919498185421628E-04
              -9.4857934239763377E-03
               3.4141383761809138E-03
               8.3516157798038445E-03
              -4.9147058803081104E-03
              -6.4191839437096583E-03
               6.2213397833332960E-03
              -4.3735341663024927E-03
              -3.3057157386518665E-03
              -3.7990592235007527E-04
               7.4007398017402078E-04
               1.7739558446701532E-02
              -7.9341037906632654E-03
              -1.3249431081444937E-03
               4.3162672606238345E-03
              -1.4223097328597971E-02
              -2.4667311007279861E-03
              -2.1736506943157703E-03
              -2.6355468685193839E-03
               1.2570431616691040E-02
              -5.6646685004262815E-03
               8.2796135588546725E-03
              -1.8072270008200884E-03
               2.9853903268037326E-03
              -2.4211065768967678E-04
              -1.2940135384081659E-02
               7.8225861058277141E-03
               4.4429755536651181E-03
              -1.6032638175829703E-02
              -5.9466169200688155E-03
              -1.6657813408208592E-03
               9.4046437759355973E-04
               1.4481458363663635E-02
               2.7483476050244610E-03
              -9.0737477874289815E-04
               2.9732650580720893E-03
               1.1464352660792886E-05
               7.4394343596255576E-03
               4.4436891908407085E-03
              -1.0891879984599890E-02
              -4.8363851288527803E-03
               8.9746610773764040E-03
              -1.0514289389098208E-02
               2.4945618734219959E-03
               5.7098351976245677E-03
              -8.7651315425566574E-04
              -7.3044998954108556E-03
               1.1726987504070143E-02
               9.8794341647368590E-03
              -7.8540452488305487E-03
              -7.8255847010934125E-03
              -1.6145840224950977E-03
              -1.5494872776794539E-03
               4.0135550892366990E-03
               4.1217164596926885E-03
               5.0675663430166506E-03
              -5.9542129311335379E-03
               3.5901117305479364E-03
              -1.9085906923449840E-03
               1.4001327469688966E-03
              -1.1566878203108829E-02
              -8.2761757535807067E-03
              -7.4471061764449535E-03
               4.2624844624432256E-03
               1.7847994656423588E-03
               7.2744571309168319E-03
              -5.9998786444532409E-03
               1.4794578778613428E-02
              -1.8798691232892909E-02
               1.9338194032221388E-02
               2.5175998867164127E-03
               1.4588533612969257E-03
              -5.1783614648192580E-03
               8.2360112599646398E-03
              -5.7612713794505371E-03
              -1.1243809638241649E-03
              -6.0165057034854679E-03
              -5.6490809921116705E-03
               1.0287109387249619E-02
              -5.5992016189914924E-03
              -5.0096213719655154E-03
              -1.4708313869147456E-03
               1.0818403753848412E-02
               5.4377833754839459E-03
              -2.6110763223995306E-03
              -3.3520076779833652E-02
               2.3962140386600089E-02
              -1.4434756367099808E-03
               1.4727762003985517E-02
              -1.0574259037196710E-02
               3.4604475817297557E-04
               2.8942261926972078E-03
              -5.5394113880192066E-06
              -1.9983925464020051E-03
              -2.4460222982604692E-03
               1.1453422008445295E-03
              -1.1175932490577597E-02
               6.4722585856528546E-04
              -2.3262276283832241E-04
              -3.8715889822569485E-03
               1.3981963407988511E-02
              -2.6139734640947777E-03
              -6.4829589176882739E-03
               8.8334329117565995E-03
               1.1280337476089594E-02
              -1.9250807780597203E-02
              -2.8069877179124950E-03
              -6.4263628319009957E-03
              -1.2385457658943290E-03
              -1.6324315238872213E-02
               8.0960206938543913E-03
               7.1480312121909740E-03
              -2.8585667408103491E-03
               7.8617248953966653E-03
              -5.3343404250205907E-03
               3.4103167541601814E-04
              -2.2333720766970740E-03
               9.3535006436858809E-04
               1.3398733301172389E-02
              -7.7596296284584464E-03
              -4.5788275246358501E-03
              -3.6821843854360856E-03
               1.4616839255248404E-02
               3.6396146982257240E-03
               1.0721626405200109E-02
               6.6418387007500927E-04
               3.6922891787470389E-03
              -9.4469135325202392E-03
              -8.4555984585534493E-04
               1.5025907227924398E-02
              -1.6913474337731025E-02
              -5.0992961243463229E-03
               9.5962361011627771E-03
              -4.0708696310002178E-03
               1.2062651394235575E-02
               2.2526826187538379E-03
               9.3826041481971656E-04
              -5.9304322854816559E-03
               1.5503852258028110E-03
               6.4258714348697623E-04
              -1.3402369401007818E-02
               6.9793702912136057E-03
              -2.7253621786932250E-03
               4.1090666963049883E-03
               8.6969991814732483E-03
               1.5524368802488810E-02
               1.3781758442680233E-03
              -1.8675176247700185E-02
               1.6237709443015107E-02
               3.7675809764384049E-03
              -8.1865761581872698E-03
               4.4418942402607861E-03
              -8.1180314490581582E-03
              -1.5455042336961109E-03
              -1.0558704302934641E-02
               4.4089454156878297E-03
               5.1619002103648198E-03
               8.7945137216831164E-03
              -2.6000976980293418E-03
              -1.0172921853603622E-03
               1.2881564080044531E-03
              -6.6315861395389048E-03
               6.0811788662167834E-04
              -1.4006784430856881E-02
               1.3973739221312540E-02
               6.8505194138012340E-03
              -7.4932370531514501E-03
              -1.2474911743517187E-02
               1.0839618236056088E-02
               1.7936180339258284E-03
              -5.3618861983704951E-03
              -1.1654575039354497E-02
              -4.5748157428482754E-03
              -6.5284420073750873E-03
               2.1060555664098302E-02
               6.9742374523672516E-03
              -8.5718832580490741E-03
              -1.1063511558960367E-02
              -4.8150155132145617E-03
               2.8573277854413910E-03
              -2.3238707240715532E-03
               4.9521360041239575E-03
               7.4714035649526165E-03
              -4.9464636490712689E-03
              -2.8141621580677514E-03
               6.6095970224747669E-03
              -1.0486304539486525E-02
              -1.9428709859595557E-03
               6.9247629741458301E-03
               4.1439101229860092E-03
               1.6145308356588807E-03
               1.6820793236233589E-02
              -7.0734498684031123E-03
              -2.0895996572478530E-02
               7.0053038991304238E-03
               2.9370546012868330E-03
              -2.4583677862665015E-03
              -5.6831483647166656E-03
               1.1915429484757017E-03
              -1.1146016864972994E-02
               1.2936490891409587E-02
              -2.5840414855865588E-03
              -5.1022230415060143E-03
              -1.9602493585408835E-03
              -9.7663133108171971E-04
              -4.3804385431318055E-03
               9.4405850484824416E-03
               6.4660583060119365E-03
              -2.2435143008821209E-02
               1.1820463685122330E-02
               1.2915293483608438E-02
              -1.5363869671437477E-02
              -3.9820621254271094E-03
               2.4486200049661039E-02
               1.9580858450023520E-03
               8.4260890294166786E-03
               8.2219854579196703E-03
              -5.2287250167051356E-03
               5.0186278960486861E-03
               1.8048087831545642E-03
               5.6243111227336894E-04
              -9.5681521913967109E-03
               4.7523059541723325E-04
              -1.9948180824825566E-03
              -4.9158533449111903E-03
               7.2430544838406608E-03
              -6.3892738916455872E-03
              -2.2659026244100863E-03
               1.0074203873552935E-02
               9.0404373914179431E-04
              -6.2304111317223083E-03
               3.6059664148392844E-03
              -2.5265707239370207E-03
               5.0607707705936063E-03
               1.8173585934821771E-03
              -1.3417139962254071E-02
               5.6256152544382088E-03
              -1.0070968873478438E-02
               1.9831824056509599E-03
               1.2725263271572317E-02
              -5.2196313212580807E-03
              -4.5221449217469874E-03
              -6.9661701361582598E-03
               5.5434634531330816E-03
              -1.3589262421351453E-02
              -5.4485164798256519E-03
               1.4182859931140501E-02
               2.9872189382628726E-03
               1.0785141455161185E-02
              -2.3959864084066154E-02
              -1.6472874234585835E-02
               8.8422359170833918E-05
               6.4608044027208988E-03
              -9.9852095180763684E-03
              -9.1740865324701614E-03
               1.7625886608234327E-03
               7.0673452429614253E-03
               1.6927253647000144E-02
              -6.6656874087595366E-03
              -6.0484272709215451E-03
              -6.2938829581313796E-03
               1.7659399919234334E-03
               9.6221084210429391E-03
              -1.6120775499938695E-02
              -3.8786678664057277E-03
               2.6350518873030276E-02
               1.6698161802332257E-03
              -2.5116128884254425E-02
              -6.7970255208463200E-03
               4.0117909891998673E-03
              -1.2014755507396638E-03
               8.9744713709034635E-04
               4.5133277487915691E-04
              -1.9004051975867724E-03
               6.1199567997702112E-03
              -1.1561763555710777E-02
               2.8296969671470782E-03
              -3.9266759929759039E-03
               1.1837975796206998E-02
               3.9997851604227554E-03
               6.8232847723611306E-03
              -7.0455315284656235E-03
               1.1264479519395654E-03
              -1.1091807347437768E-02
               1.2320155638763597E-02
               1.2478148504251985E-02
               3.3839745716496288E-03
              -1.0909418885371666E-03
              -4.3470945792672326E-04
              -4.6215909732411709E-03
               6.7672680605787719E-03
               1.4108769458063733E-03
               8.4122196334252101E-03
              -5.5084177441762135E-03
              -2.4298781330546193E-03
              -3.9923917810562697E-03
              -1.3253950099804002E-03
               6.9627355744528922E-04
              -1.0824408718089094E-03
              -3.9879286902338074E-04
               2.9192753206082850E-03
              -8.4724959414550580E-04
               9.5974348107344398E-03
              -1.3020838802534690E-02
               2.1182398715571625E-04
               4.6281082517129184E-03
               1.8212400138726667E-03
               1.0846463943210249E-03
               3.6668742876188442E-03
              -6.5965258825941356E-04
              -6.9025628552141032E-04
              -1.2926495477212798E-02
              -2.2732068036411530E-03
               3.3929805350170696E-03
              -9.6843017367133286E-03
               4.1083801446373360E-03
               3.6546554014940686E-03
              -1.1091096376302744E-05
              -2.4813596578156165E-03
              -1.9745192649259892E-03
               1.7870573454614473E-03
               1.9042502188806423E-03
              -4.9843141952239994E-03
              -2.9514254484142027E-05
              -2.6630284549012317E-03
              -2.1066283617177648E-03
              -3.8015149800925529E-03
               2.2797377935711862E-03
               7.4720217741884656E-03
               1.6354985589626891E-03
              -1.6423257440952351E-02
              -1.2726856525199315E-02
               1.6814378923172172E-02
               5.4632108626282471E-03
              -9.0189534317961916E-04
              -2.2986009839278507E-03
              -1.5474350922119543E-02
               6.7861429262379104E-03
              -2.6486057424827169E-03
              -1.3343305338908117E-02
              -4.8051222498004444E-03
              -7.4120358782200722E-03
               2.0553974425407207E-03
              -3.2294671426124238E-03
               1.7726353879202243E-02
              -2.6167524570741914E-03
              -4.5353905606209622E-03
              -7.0696284528648356E-03
               1.5353145898414186E-03
               3.5827402221922534E-03
               1.7324858763498460E-03
               8.9217343997059797E-05
               4.6099532392210570E-03
              -1.2520010651570644E-02
               1.1908192794568008E-02
               8.7200635312041606E-03
               1.8167931124940416E-03
               8.7893137958851828E-04
               4.1676135769194830E-04
              -1.2972405817095224E-03
              -6.9404807378185243E-04
               8.5378812268673155E-03
               9.3993034204316889E-03
              -7.6593631313000097E-03
              -8.0153364981210510E-03
              -1.5360358911926998E-03
               4.4780951458041366E-03
              -7.4225023837819377E-04
               4.2028661691125959E-03
               1.6352007277473019E-03
              -6.2746502988790418E-03
               9.3190595204689867E-03
              -9.7090688219405204E-03
              -6.4255035292112416E-04
               2.0824667271588281E-02
              -1.8224346930122211E-04
              -1.4987238268704937E-04
               6.2072531093318745E-03
              -3.7548775075175807E-03
              -6.9972258493297048E-03
               3.2812416484530650E-03
              -4.2560735276891786E-04
               5.4147526508975920E-03
              -2.8205627386097866E-03
              -1.2846271859310410E-03
         &END THERMOSTAT_ENERGY
         &RNG_INIT
Wiener process for Thermostat # 1        1 F T T  -1.6056713840164305E+00        3387015361.0         137382640.0        2192597260.0        1128160221.0        3007942987.0        2367818089.0             12345.0             12345.0             12345.0             12345.0             12345.0             12345.0             12345.0             12345.0             12345.0             12345.0             12345.0             12345.0
Wiener process for Thermostat # 2        1 F T T  -9.3456626498894924E-01        4065136688.0         581519704.0          82448286.0         821673068.0        4124757962.0        2241586487.0        3692455944.0        1366884236.0        2968912127.0         335948734.0        4161675175.0         475798818.0        3692455944.0        1366884236.0        2968912127.0         335948734.0        4161675175.0         475798818.0
Wiener process for Thermostat # 3        1 F T T   4.7242553150396355E-01         508416635.0        3665060585.0        1691530161.0        2959898484.0        4166971438.0        1963200121.0        1015873554.0        1310354410.0        2249465273.0         994084013.0        2912484720.0        3876682925.0        1015873554.0        1310354410.0        2249465273.0         994084013.0        2912484720.0        3876682925.0
Wiener process for Thermostat # 4        1 F T T  -3.9887716428517361E-01        3238229049.0        2958100567.0         270197107.0         330716874.0        1763746693.0          35525183.0        2338701263.0        1119171942.0        2570676563.0         317077452.0        3194180850.0         618832124.0        2338701263.0        1119171942.0        2570676563.0         317077452.0        3194180850.0         618832124.0
Wiener process for Thermostat # 5        1 F T T  -1.5891467246631372E-01         923810649.0        2055571043.0        3293660201.0        2561736567.0         445286679.0         860625302.0        1597262096.0        3906379055.0        3312112953.0        1016013135.0        4099474108.0         275305423.0        1597262096.0        3906379055.0        3312112953.0        1016013135.0        4099474108.0         275305423.0
Wiener process for Thermostat # 6        1 F T T   1.0739481311445012E-01        2850175041.0        3974657565.0          95927491.0        2645961627.0        1466385727.0        3111775876.0          97147054.0        3131372450.0         829345164.0        3691032523.0        3006063034.0        4259826321.0          97147054.0        3131372450.0         829345164.0        3691032523.0        3006063034.0        4259826321.0
Wiener process for Thermostat # 7        1 F T T  -1.0022014162260870E+00        3455667330.0        2064800980.0        3149830116.0         326878409.0         395394244.0        1284381057.0         796079799.0        2105258207.0         955365076.0        2923159030.0        4116632677.0        3067683584.0         796079799.0        2105258207.0         955365076.0        2923159030.0        4116632677.0        3067683584.0
Wiener process for Thermostat # 8        1 F T T  -2.5881702045477623E-01        1741180337.0         460453072.0        2199496155.0        2804699345.0        3011492723.0        2421214064.0        3281794178.0        2616230133.0        1457051261.0        2762791137.0        2480527362.0        2282316169.0        3281794178.0        2616230133.0        1457051261.0        2762791137.0        2480527362.0        2282316169.0
Wiener process for Thermostat # 9        1 F T T   1.2822552852412232E+00          54173193.0         787083506.0        2201353402.0        2958666505.0        1643735683.0        3959564463.0        3777646647.0        1837464056.0        4204654757.0         664239048.0        4190510072.0        2959195122.0        3777646647.0        1837464056.0        4204654757.0         664239048.0        4190510072.0        2959195122.0
Wiener process for Thermostat # 10       1 F T T  -8.5717852435865083E-01        3300432006.0        2386713015.0        3295679783.0        2679689278.0        1757436330.0        1765573325.0        4215590817.0        3862461878.0        1087200967.0        1544910132.0         936383720.0        1611370123.0        4215590817.0        3862461878.0        1087200967.0        1544910132.0         936383720.0        1611370123.0
Wiener process for Thermostat # 11       1 F T T  -4.9239497631502011E-01         871818367.0         111876066.0          71365368.0        1637666190.0        2912352667.0        4028852027.0        1683636369.0         362165168.0         814316280.0         869382050.0         980203903.0        2062101717.0        1683636369.0         362165168.0         814316280.0         869382050.0         980203903.0        2062101717.0
Wiener process for Thermostat # 12       1 F T T   6.0929532275973836E-02          64193837.0        1197394884.0        3467266583.0         479744795.0        1331646799.0        4051945284.0         272317999.0         166758548.0         310112982.0         201045826.0        1680231254.0         118290799.0         272317999.0         166758548.0         310112982.0         201045826.0        1680231254.0         118290799.0
Wiener process for Thermostat # 13       1 F T T   1.1106304891037841E+00        3543083319.0        4012340167.0        1898003952.0        3423646310.0         327747259.0        2320129061.0        2245755202.0        1652682525.0        2865544364.0         721509566.0         209733568.0         592362218.0        2245755202.0        1652682525.0        2865544364.0         721509566.0         209733568.0         592362218.0
Wiener process for Thermostat # 14       1 F T T  -9.4631106547959942E-01        1413534212.0        3746302326.0        1111717599.0        3836396321.0        2954771159.0        4068380650.0        3003961408.0        3529909391.0          14538032.0        3603919910.0         566682685.0        1235016484.0        3003961408.0        3529909391.0          14538032.0        3603919910.0         566682685.0        1235016484.0