 # Version information for this restart file 
 # current date 2022-11-29 21:13:41.090
 # current working dir /scratch/work/courses/CHEM-GA-2671-2022fa/wz2449/main/comp-lab-class/Week12/Runs/Water
 # Program compiled at                              Sat Dec 12 18:27:15 EST 2020
 # Program compiled on                                         cs001.nyu.cluster
 # Program compiled for                                                nyu-intel
 # Source code revision number                                       git:8c64c6e
 &GLOBAL
   PRINT_LEVEL  LOW
   PROJECT_NAME water_aimd_1ns_every0.5fs
   RUN_TYPE  MD
   WALLTIME 21600
 &END GLOBAL
 &MOTION
   &GEO_OPT
     OPTIMIZER  BFGS
     MAX_ITER  100
     MAX_DR     3.0000000000000001E-03
     &BFGS
     &END BFGS
   &END GEO_OPT
   &MD
     ENSEMBLE  NVT
     STEPS  2000000
     TIMESTEP     4.9999999999999994E-01
     STEP_START_VAL  2386
     TIME_START_VAL     1.1929999999999570E+03
     ECONS_START_VAL    -1.1023558357480233E+03
     TEMPERATURE     3.0000000000000000E+02
     &THERMOSTAT
       TYPE  GLE
       REGION  MASSIVE
       &GLE
         NDIM  5
         A_SCALE     1.0000000000000000E+00
         A_LIST     1.8595758612559999E+02    2.7263853498399998E-01    1.1526100454610001E+01   -3.6414578262600003E+01 \
             2.3173375816020001E+02
         A_LIST    -2.7809524712060002E-01    8.5951591808710006E-05    7.2189048017650004E-01   -1.9844539343859999E-01 \
             4.2409257583420001E-01
         A_LIST    -1.4825808131210000E+01   -7.2189048017650004E-01    1.3590902121280000E+00    5.1498896280349999E+00 \
            -9.9949268450990001E+00
         A_LIST    -1.0372189126880000E+01    1.9844539343859999E-01   -5.1498896280349999E+00    2.6661910891169999E+01 \
             1.1507715495310000E+01
         A_LIST     2.1801346360420001E+02   -4.2409257583420001E-01    9.9949268450990001E+00   -1.1507715495310000E+01 \
             3.0958394565589998E+02
         &THERMOSTAT_ENERGY
              -6.8623406366938190E-03
              -1.2858099534137585E-03
               1.6126261261340094E-04
               7.4893942083529468E-03
              -2.0601688721663635E-02
               8.7220012480851723E-03
              -4.3026950414287342E-03
              -3.3895462704013214E-03
               1.9032054564844046E-02
               4.4653167321835989E-03
               1.3486463081017910E-02
               2.5182102217987815E-03
              -6.5801998362506426E-03
              -5.4254222803893984E-03
              -3.2769655858358279E-03
              -7.4816126462382941E-03
               1.7853226467601999E-02
              -8.1171976930655024E-04
               5.2795028898601788E-03
              -3.3796668585247720E-03
              -5.6533721742196416E-03
               4.9520549212879548E-03
              -6.4209381219722701E-03
              -4.1588318551183424E-03
               2.2008191855238473E-03
               3.7372834118614678E-03
               8.7183023989931916E-03
               1.6173375152335461E-03
               1.2438545674013212E-02
               2.8359446615406625E-03
               1.8825104365309277E-03
              -5.3334863100497464E-03
               2.3726417164161586E-03
               2.0154494287484069E-03
              -1.6648485196292351E-02
               1.8654660705398528E-02
               6.0424631033195362E-04
              -4.6312123313907976E-03
              -1.6554072993596499E-04
               2.7314279550995010E-03
              -4.3035868791739922E-03
              -5.2591340172385617E-03
               5.0503641697864027E-03
               6.4600299898145306E-03
               1.2264054287491988E-03
               3.1528824958255664E-03
              -1.7815872697319280E-03
               5.7646891248924678E-03
               7.7553587093465723E-03
              -2.2040021549065698E-03
               5.3082820833258416E-04
               3.0450559703017574E-03
               3.7945121633485490E-03
              -5.7981909770727499E-03
              -4.9460620571907758E-03
               3.7992206923901889E-03
              -5.8801701462340896E-03
              -4.0929786623469357E-03
               3.3758131389316883E-03
               1.4499359506256726E-02
               2.7821362744668964E-03
              -8.6671582282367311E-03
               1.5101225832223990E-02
              -3.9155267452841919E-03
               3.7216593787046635E-03
               5.9406697214842282E-03
              -4.1831623511199593E-03
               1.8062562885894945E-03
               1.8300289111212086E-02
              -1.3245217162409636E-03
              -3.4442052036216977E-03
              -7.5098250198035194E-03
               1.6215530142527569E-03
               3.5420924013089519E-03
              -2.1072700407857377E-03
              -9.2732859623139915E-03
               1.0502223842182948E-02
              -3.1124487487448212E-03
               3.3519150053554245E-03
              -1.0873303258055874E-02
               2.3644808179036133E-02
              -7.6549417886281838E-03
               1.5160462278090048E-03
               7.6942051726855496E-04
              -1.4952704015573192E-04
               6.3186244454817202E-03
               3.7040615076165979E-03
              -1.9211094655992326E-03
               4.5772182872638560E-03
               3.6600221766785357E-03
               3.8758504333034952E-03
              -7.5939840391894145E-03
               6.8900308939669826E-04
              -7.5980086738516193E-03
              -6.8144785413655502E-03
               4.6581492189921711E-03
               1.1494115289506798E-02
              -8.0128973840400239E-04
               4.3974324735430760E-03
              -1.5669476378837740E-03
              -3.7565644068195147E-04
              -7.5300899022199335E-03
               7.1332496510325884E-03
              -5.1231768744017143E-03
               1.1042521252267890E-03
               1.2508311000221655E-02
               3.5185716470677720E-04
              -5.4512373151072123E-03
              -3.8989959474357528E-03
              -6.8223389215763533E-03
               2.9038553543925863E-03
               6.8709289457111224E-03
              -4.3049805980060439E-03
              -2.0916883492919560E-03
               9.9303698687954866E-03
               8.0880324896498521E-03
              -1.7818196720158514E-02
               5.6643315735772715E-03
               6.5576875776196175E-03
               8.8377662347258138E-03
               9.5588370236585098E-03
              -4.3121656534027544E-03
              -8.5473606868835658E-04
               7.3035557819334301E-03
              -1.0292891726146433E-02
              -3.9402085101871371E-03
               5.0431375154149785E-03
               1.0632036462422502E-03
              -6.3912408789430428E-03
               7.8170847084801653E-03
              -3.9595265926033124E-03
               6.3454578594984365E-03
              -1.4809345618269540E-02
               8.8433239534161934E-03
              -3.9260277202886667E-03
              -4.1445152500134972E-04
               1.2746194329666357E-03
              -4.6032998097172281E-03
               3.0185369858079019E-03
              -1.7281226868801078E-03
               4.0540620580733861E-03
               1.7249369328941181E-03
               2.0799050643569551E-02
              -4.5656680078675505E-03
              -3.9644895936273442E-03
              -2.7141052673724771E-03
               3.9221220036287606E-03
               1.4924661944363369E-02
               5.0236756938159812E-03
              -3.9587416555389183E-03
              -2.1013541917683641E-02
               4.4153112378492844E-03
               3.0438435155404251E-03
              -1.1839007948067972E-02
               1.1454755435468917E-02
              -1.8578838737477355E-03
               1.4500366006820712E-03
              -4.2556634035953184E-03
               4.0795902723943988E-03
              -1.0548748678598473E-03
              -9.5003259475379010E-03
              -8.2399611904472782E-03
              -1.8437147262308658E-03
               1.1231969069041543E-03
               9.6827171551614102E-03
               1.2655621879444735E-02
              -2.1225753158634316E-03
              -2.0703439984820968E-02
              -7.2823398166730318E-03
               1.5466747320345923E-02
              -1.7406353797888362E-03
              -3.9090675152793726E-03
               5.5244526222569205E-03
              -1.9713612639563746E-03
              -6.0048185350938870E-03
               4.4633550372234513E-03
              -1.2975420311779324E-02
              -2.8456421054405209E-04
               1.6022123273517974E-03
               6.9131002597839835E-03
              -4.2282547645920814E-03
               2.5819545131445451E-03
               9.7835946104487606E-03
              -1.8991656365300157E-02
               1.4088611211694824E-02
               3.0147138302161224E-03
              -8.3475079449548059E-03
               7.3882516829776833E-05
              -2.8511002548938860E-03
              -9.4363515040065695E-04
               3.3889948728117888E-03
              -9.4044581331623905E-04
              -9.4944061904652568E-03
               3.7949807924614015E-03
               7.7559001089514950E-03
              -4.9426523528112503E-03
              -6.9995597981567809E-03
               6.2221898823279350E-03
              -4.3987741801996081E-03
              -3.3240699548483842E-03
               3.7090797250387741E-04
               5.7484873905496402E-04
               1.7751373205044267E-02
              -7.6467757328241093E-03
              -1.0946443289131076E-03
               4.5105115857011257E-03
              -1.3865400286249665E-02
              -2.1141378151497640E-03
              -2.2277016537590941E-03
              -2.6460580886489417E-03
               1.2022868598884974E-02
              -6.3103314397612298E-03
               8.2919185929718371E-03
              -1.8837899756984845E-03
               2.9862332941539955E-03
              -1.3802021285771635E-04
              -1.2277342384567517E-02
               7.9854587118109843E-03
               4.4457719734583307E-03
              -1.5563406104368493E-02
              -6.1602687892119779E-03
              -1.4317316237226615E-03
               7.6360736567562804E-04
               1.5228106025093198E-02
               2.7363525346619445E-03
              -8.4421526854936910E-04
               3.2449100533146358E-03
               7.5530628024654989E-05
               7.4456952887831879E-03
               3.9416589942629660E-03
              -1.0784942200072018E-02
              -4.8428694369828896E-03
               9.1362467810717669E-03
              -1.0749780157000283E-02
               3.0073550730266903E-03
               5.5010003188864943E-03
              -8.6969642716825822E-04
              -5.5152323027245782E-03
               1.2017824063301374E-02
               9.6353500285621362E-03
              -7.1916592840384434E-03
              -8.0966802710346862E-03
              -1.0903487537025020E-03
              -1.2688534928703115E-03
               3.4444720892802191E-03
               4.0511397529665316E-03
               5.0611076395865907E-03
              -6.6006982148889021E-03
               3.1761367865585813E-03
              -1.5327004120596682E-03
               1.9678068964112867E-03
              -1.1454423912863568E-02
              -8.4837284326089620E-03
              -6.7911450201534529E-03
               4.9400977456384391E-03
               8.6158633560358617E-04
               7.1832395365816976E-03
              -5.9682260941614513E-03
               1.4743026949128943E-02
              -1.8778967757821424E-02
               1.9340590750141801E-02
               1.9585592486470321E-03
               1.3449705942115006E-03
              -4.9902003826256197E-03
               9.4343114067007624E-03
              -5.4433400096144096E-03
              -1.4753998023705778E-03
              -6.2397663367355725E-03
              -5.5951402706181999E-03
               1.0269453466207081E-02
              -5.2659584520657887E-03
              -5.1023078875128743E-03
              -1.1681041669250221E-03
               1.1481249095235955E-02
               5.7341115441214398E-03
              -3.8562379651746930E-03
              -3.3472243351675306E-02
               2.4514960632457554E-02
              -1.8419671331737378E-03
               1.4812619256327422E-02
              -1.0519847219967416E-02
               3.9931113554340594E-04
               2.6178867614869133E-03
              -9.7813660287934972E-06
              -1.2678435733844264E-03
              -2.3222501324117778E-03
               1.5329148472753066E-03
              -1.1622513773031832E-02
               6.2959638648049524E-04
              -2.5858307740343512E-04
              -3.7746222833944208E-03
               1.3980275582646891E-02
              -2.6579530662822629E-03
              -6.5155783482979410E-03
               8.9400610828539138E-03
               1.1291487793702154E-02
              -1.9287393503874876E-02
              -2.9523413105091924E-03
              -9.2637265880445574E-03
              -1.1794626100949082E-03
              -1.5103473812464702E-02
               8.4361001131174809E-03
               5.2113037150641178E-03
              -3.0084366036684479E-03
               7.5412827628887607E-03
              -6.2089899014262781E-03
               7.9565450478294821E-04
              -1.4666417631444763E-03
               1.3575560383803020E-03
               1.2777004138146583E-02
              -8.4808083026967594E-03
              -5.1123835440987694E-03
              -3.6563893517596023E-03
               1.4579254922038851E-02
               3.7385034989630759E-03
               1.0377836217140526E-02
               4.5755192114025906E-04
               3.3716533751865308E-03
              -9.4677807036518749E-03
              -8.0029626603964890E-04
               1.4944578211503790E-02
              -1.7343772334714260E-02
              -5.9109630606363631E-03
               9.0247047366761052E-03
              -3.9934284014348058E-03
               1.2156668298053851E-02
               2.2489254355652854E-03
               1.3931265104337625E-03
              -5.8687265189594591E-03
               1.5147495068961769E-03
               7.4431562405726870E-04
              -1.3549035318522003E-02
               6.9011357335566946E-03
              -2.3755620390790121E-03
               5.2900690556698564E-03
               9.3903263103156404E-03
               1.6059264969501361E-02
               1.5983197168863445E-03
              -1.8669209253893006E-02
               1.6369412216116878E-02
               3.7031482591628299E-03
              -9.3835094771940429E-03
               4.3955719896061106E-03
              -8.6794235808105146E-03
              -1.4501709484356392E-03
              -1.0406267886162815E-02
               4.4163343058469338E-03
               5.2748762537877655E-03
               8.8791018309436719E-03
              -4.1728513524949100E-03
              -9.5535654288308439E-04
               1.2897073763821036E-03
              -6.6447182872833776E-03
               2.6223249665283468E-04
              -1.4110652387715306E-02
               1.3666210765031375E-02
               6.2504641073892250E-03
              -6.9480033851896687E-03
              -1.3175205947207102E-02
               1.0972147136091383E-02
               2.0248697634311511E-03
              -5.6033505578315197E-03
              -1.1414694647233457E-02
              -4.6843299030714771E-03
              -6.4127464786282564E-03
               2.1041545851289253E-02
               6.8313463116122736E-03
              -9.1945548819811242E-03
              -1.1504919024499865E-02
              -4.7711058616983085E-03
               2.8722435812831180E-03
              -2.1288307252676024E-03
               4.2079239078786374E-03
               6.6856596960351245E-03
              -4.6251962712704200E-03
              -2.9444285734201146E-03
               6.7602890085206322E-03
              -9.8643486179019243E-03
              -1.5891148569850747E-03
               8.3324336203204376E-03
               3.9837298062077500E-03
               1.2757385404939419E-03
               1.7640008364867420E-02
              -6.8621114693491444E-03
              -2.1372038014342992E-02
               6.5661405170239035E-03
               3.0428941125277601E-03
              -2.4976860465834483E-03
              -5.2296908805675325E-03
               8.0603252006470737E-04
              -1.1285823752636254E-02
               1.3498132427141304E-02
              -2.3575718641141038E-03
              -5.1176971166983828E-03
              -1.8982407872029979E-03
              -6.8822491497472216E-04
              -4.4116820198798140E-03
               9.1245248355810663E-03
               6.5800421247290209E-03
              -2.2102804641343187E-02
               1.1849664102994146E-02
               1.2911865524239775E-02
              -1.5879510646203542E-02
              -4.1257761603711992E-03
               2.3757618044572971E-02
               2.0281534507659480E-03
               8.3728939874021975E-03
               7.9121475937084813E-03
              -4.6056364426279219E-03
               5.4922245682954753E-03
               1.6607290846206871E-03
               1.2029494955716636E-03
              -9.5709725994544744E-03
               3.3146617374006778E-04
              -2.2412888532966258E-03
              -5.5743623535294620E-03
               7.4880733786326223E-03
              -7.5688038712620051E-03
              -2.2476837915034937E-03
               1.0568225857098356E-02
              -2.1652469477148103E-03
              -5.3842914884802062E-03
               3.3967698606620677E-03
              -1.9312224480774604E-03
               5.0747216205620799E-03
               1.6661035397317048E-03
              -1.3452644553437428E-02
               5.5071676724034093E-03
              -8.6529615908137961E-03
               2.3005735286590312E-03
               1.2673542309541921E-02
              -5.2556421010778766E-03
              -4.5105150819934030E-03
              -7.1770275279439055E-03
               6.0355705265562835E-03
              -1.3191908148072260E-02
              -5.1774782726415822E-03
               1.4296258808401709E-02
               3.8961502674470759E-03
               1.1484279444547187E-02
              -2.3946300416492511E-02
              -1.6422382881833873E-02
              -1.8246279092411325E-04
               7.3658214269887983E-03
              -9.8998493038425939E-03
              -1.0216913247451422E-02
               2.1011174459790406E-03
               6.7683347914326382E-03
               1.6718840461954005E-02
              -6.2640714995488532E-03
              -6.0857345722435249E-03
              -6.3069082011967927E-03
               1.3960259029190080E-03
               9.8458478789864249E-03
              -1.5778684754228306E-02
              -2.2891178106878387E-03
               2.6691917763669762E-02
               2.3028321734438395E-03
              -2.3823217927896212E-02
              -6.6169888806907598E-03
               4.0710402654167343E-03
              -1.1962306763730053E-03
               9.3140704825635115E-04
               5.3879871535786035E-04
              -1.5164675877633580E-03
               6.7366485124495520E-03
              -1.1487163663892708E-02
               1.4422257938298392E-03
              -2.7372592820737703E-03
               1.1833045535573778E-02
               3.4836348448971438E-03
               7.1439553149888150E-03
              -6.9250564887198569E-03
               1.2248321961240425E-03
              -1.1215511445011378E-02
               1.2899768842883973E-02
               1.2285958959835839E-02
               3.3377422024766174E-03
              -1.1600486338291063E-03
              -1.0308767439533618E-03
              -5.8676733841975838E-03
               7.0755754392951547E-03
              -1.6349564284237053E-04
               7.8552453783656412E-03
              -5.3721168657068115E-03
              -2.1803571614529000E-03
              -3.8336941857318634E-03
              -2.3923231729518334E-03
               4.9007799688314624E-04
              -1.0468460854337230E-03
              -1.9808250123224105E-04
               2.8573317245441541E-03
              -9.2772617069051655E-04
               8.6209975246923816E-03
              -1.3116930172398176E-02
               3.0131606430869226E-04
               4.6312115159196756E-03
               1.6206997590677296E-03
               1.8815227505672107E-03
               3.5953389856369054E-03
              -1.2637415350651239E-04
              -7.7011831862150719E-04
              -1.3200609115161670E-02
              -2.1760007781245977E-03
               3.3999668847721201E-03
              -9.7017167014154092E-03
               4.0974592977407716E-03
               3.6617527891288824E-03
               2.3874292533479518E-05
              -2.3984372442023222E-03
              -1.9844909393310355E-03
               1.7899910890925349E-03
               2.0930506712150115E-03
              -5.4582520627920296E-03
               1.6815887118047120E-04
              -2.5500524496332310E-03
              -2.2372632416149639E-03
              -4.1126696269653731E-03
               2.8187905918127675E-03
               7.3642539457432219E-03
               1.8001925566751285E-03
              -1.6433615618550151E-02
              -1.2689098277447894E-02
               1.7463937252207618E-02
               5.0049085576383849E-03
               4.8428541509150890E-04
              -2.3385909676060775E-03
              -1.4536798508867447E-02
               6.1503642313414757E-03
              -2.6454665678074954E-03
              -1.2859277558216200E-02
              -4.2722888323472197E-03
              -7.8439212068818816E-03
               1.4730120336019057E-03
              -3.6977676551174072E-03
               1.7786257255637521E-02
              -2.6650624384379831E-03
              -4.5982172709116073E-03
              -7.4264886329258343E-03
               1.5938966780340825E-03
               3.3977797898613409E-03
               1.6274559613531304E-03
               1.5914696753744091E-04
               4.7576690740379806E-03
              -1.1714806853805868E-02
               1.1657733695390157E-02
               8.5879200511782550E-03
               9.6456272957820262E-04
               2.6449961592080694E-04
               4.6831549271582015E-04
              -1.3518634333273842E-03
              -7.5034688616600520E-04
               9.4083713654190652E-03
               9.3734105811109966E-03
              -7.6847682081233647E-03
              -7.6230326107262023E-03
              -1.3720693009174449E-03
               3.3770159169636913E-03
              -4.4403564079264433E-04
               4.2281663846249632E-03
               1.8506504612095086E-03
              -6.3152218465226907E-03
               9.2771231902073984E-03
              -9.5149266234101550E-03
              -1.6139532830133452E-03
               2.1020302427487588E-02
              -2.6630382580714929E-04
              -1.7291655597849701E-03
               6.9271878737665396E-03
              -3.5967350479528077E-03
              -6.9970739552222315E-03
               3.3398900806755494E-03
               1.1315900431415617E-04
               5.2603914725862476E-03
              -3.4811601752079689E-03
              -8.0031519112758014E-04
         &END THERMOSTAT_ENERGY
         &RNG_INIT
Wiener process for Thermostat # 1        1 F T T  -1.8962996183366259E-02         275348297.0        4233164407.0        1642962873.0         413283683.0        2370188039.0        4177911554.0             12345.0             12345.0             12345.0             12345.0             12345.0             12345.0             12345.0             12345.0             12345.0             12345.0             12345.0             12345.0
Wiener process for Thermostat # 2        1 F T T  -3.2220152498910429E-02        2111675678.0         630930711.0        2778666330.0        4207486128.0         465516912.0        2809013372.0        3692455944.0        1366884236.0        2968912127.0         335948734.0        4161675175.0         475798818.0        3692455944.0        1366884236.0        2968912127.0         335948734.0        4161675175.0         475798818.0
Wiener process for Thermostat # 3        1 F T T  -1.2456473533326873E+00        3614984965.0        4043698329.0        2141002030.0        4066091448.0        2362990090.0        3746355456.0        1015873554.0        1310354410.0        2249465273.0         994084013.0        2912484720.0        3876682925.0        1015873554.0        1310354410.0        2249465273.0         994084013.0        2912484720.0        3876682925.0
Wiener process for Thermostat # 4        1 F T T  -1.6547010503325865E+00        1128077885.0        3532109515.0        1130437109.0        4115274810.0        2371383239.0        2184325573.0        2338701263.0        1119171942.0        2570676563.0         317077452.0        3194180850.0         618832124.0        2338701263.0        1119171942.0        2570676563.0         317077452.0        3194180850.0         618832124.0
Wiener process for Thermostat # 5        1 F T T  -5.1132208422469061E-01        3957803132.0        3733595301.0        3818518545.0        1356514926.0        2934766440.0        3021097049.0        1597262096.0        3906379055.0        3312112953.0        1016013135.0        4099474108.0         275305423.0        1597262096.0        3906379055.0        3312112953.0        1016013135.0        4099474108.0         275305423.0
Wiener process for Thermostat # 6        1 F T T  -1.0753617607716617E+00        3909120020.0        3768519905.0        2964352313.0        3462301474.0        2224556315.0        3508434153.0          97147054.0        3131372450.0         829345164.0        3691032523.0        3006063034.0        4259826321.0          97147054.0        3131372450.0         829345164.0        3691032523.0        3006063034.0        4259826321.0
Wiener process for Thermostat # 7        1 F T T   7.1258108835413547E-01        4015588668.0        3741418080.0        1805945534.0        3861479983.0         612402959.0        3071923516.0         796079799.0        2105258207.0         955365076.0        2923159030.0        4116632677.0        3067683584.0         796079799.0        2105258207.0         955365076.0        2923159030.0        4116632677.0        3067683584.0
Wiener process for Thermostat # 8        1 F T T  -3.4187400266913526E-01        2430402596.0        3486675130.0         150242932.0        1236634190.0        1841724024.0         994105710.0        3281794178.0        2616230133.0        1457051261.0        2762791137.0        2480527362.0        2282316169.0        3281794178.0        2616230133.0        1457051261.0        2762791137.0        2480527362.0        2282316169.0
Wiener process for Thermostat # 9        1 F T T   7.9216373557283248E-01        2299310283.0        3570801226.0        3393210760.0         270853690.0        3912155445.0        2076039095.0        3777646647.0        1837464056.0        4204654757.0         664239048.0        4190510072.0        2959195122.0        3777646647.0        1837464056.0        4204654757.0         664239048.0        4190510072.0        2959195122.0
Wiener process for Thermostat # 10       1 F T T   1.7724735187377922E+00        3064084015.0        3623310605.0        2336314919.0         781703054.0         765392555.0         260283201.0        4215590817.0        3862461878.0        1087200967.0        1544910132.0         936383720.0        1611370123.0        4215590817.0        3862461878.0        1087200967.0        1544910132.0         936383720.0        1611370123.0
Wiener process for Thermostat # 11       1 F T T  -9.6741915884491797E-02        4017959679.0        4254157529.0        2615870750.0        4201414526.0        2192692220.0        2102605259.0        1683636369.0         362165168.0         814316280.0         869382050.0         980203903.0        2062101717.0        1683636369.0         362165168.0         814316280.0         869382050.0         980203903.0        2062101717.0
Wiener process for Thermostat # 12       1 F T T  -3.1474085833625792E-01        1098550546.0        2418171779.0        2271344271.0        3898040842.0        2234350011.0         127547558.0         272317999.0         166758548.0         310112982.0         201045826.0        1680231254.0         118290799.0         272317999.0         166758548.0         310112982.0         201045826.0        1680231254.0         118290799.0
Wiener process for Thermostat # 13       1 F T T   3.9246983456118112E-01         988990463.0        1274557885.0        1514533825.0        4010197974.0        2525065192.0        1403916409.0        2245755202.0        1652682525.0        2865544364.0         721509566.0         209733568.0         592362218.0        2245755202.0        1652682525.0        2865544364.0         721509566.0         209733568.0         592362218.0
Wiener process for Thermostat # 14       1 F T T  -5.1067980657739587E-01        3948824473.0         232757598.0         585535405.0        2523059187.0        3138064669.0        1355984159.0        3003961408.0        3529909391.0          14538032.0        3603919910.0         566682685.0        1235016484.0        3003961408.0        3529909391.0          14538032.0        3603919910.0         566682685.0        1235016484.0