 # Version information for this restart file 
 # current date 2022-11-29 21:13:17.795
 # current working dir /scratch/work/courses/CHEM-GA-2671-2022fa/wz2449/main/comp-lab-class/Week12/Runs/Water
 # Program compiled at                              Sat Dec 12 18:27:15 EST 2020
 # Program compiled on                                         cs001.nyu.cluster
 # Program compiled for                                                nyu-intel
 # Source code revision number                                       git:8c64c6e
 &GLOBAL
   PRINT_LEVEL  LOW
   PROJECT_NAME water_aimd_1ns_every0.5fs
   RUN_TYPE  MD
   WALLTIME 21600
 &END GLOBAL
 &MOTION
   &GEO_OPT
     OPTIMIZER  BFGS
     MAX_ITER  100
     MAX_DR     3.0000000000000001E-03
     &BFGS
     &END BFGS
   &END GEO_OPT
   &MD
     ENSEMBLE  NVT
     STEPS  2000000
     TIMESTEP     4.9999999999999994E-01
     STEP_START_VAL  2385
     TIME_START_VAL     1.1924999999999570E+03
     ECONS_START_VAL    -1.1023558357480233E+03
     TEMPERATURE     3.0000000000000000E+02
     &THERMOSTAT
       TYPE  GLE
       REGION  MASSIVE
       &GLE
         NDIM  5
         A_SCALE     1.0000000000000000E+00
         A_LIST     1.8595758612559999E+02    2.7263853498399998E-01    1.1526100454610001E+01   -3.6414578262600003E+01 \
             2.3173375816020001E+02
         A_LIST    -2.7809524712060002E-01    8.5951591808710006E-05    7.2189048017650004E-01   -1.9844539343859999E-01 \
             4.2409257583420001E-01
         A_LIST    -1.4825808131210000E+01   -7.2189048017650004E-01    1.3590902121280000E+00    5.1498896280349999E+00 \
            -9.9949268450990001E+00
         A_LIST    -1.0372189126880000E+01    1.9844539343859999E-01   -5.1498896280349999E+00    2.6661910891169999E+01 \
             1.1507715495310000E+01
         A_LIST     2.1801346360420001E+02   -4.2409257583420001E-01    9.9949268450990001E+00   -1.1507715495310000E+01 \
             3.0958394565589998E+02
         &THERMOSTAT_ENERGY
              -6.6021361663993515E-03
              -1.7329333761579781E-03
               9.6074660462815313E-05
               7.3825364932095195E-03
              -2.0741131815096864E-02
               8.8333525743162552E-03
              -3.9152605449665062E-03
              -3.2675379255514775E-03
               1.8994373770921689E-02
               4.7513225386081109E-03
               1.3376186940243374E-02
               2.5710290304381284E-03
              -6.2638507247879177E-03
              -5.6336217814045055E-03
              -3.3357950945672251E-03
              -8.6977253374234433E-03
               1.7816557887530629E-02
              -7.7234949542724066E-04
               5.5234829604551847E-03
              -3.3996852129106010E-03
              -4.9523963256667440E-03
               4.9237755921726989E-03
              -6.3462360786709290E-03
              -4.1732240280428316E-03
               2.1728975253185469E-03
               4.0559245828754647E-03
               8.8069878196399935E-03
               1.5490557507013109E-03
               1.2364351601225988E-02
               2.7980505101397896E-03
               1.4526980790445663E-03
              -5.3329299441616986E-03
               2.3654177083982575E-03
               1.7834308111063554E-03
              -1.6468421292780276E-02
               1.8980013414403168E-02
               1.7303090327800644E-04
              -4.6565374312092199E-03
              -1.7439314033240887E-04
               3.1407122045196936E-03
              -4.2328203738231521E-03
              -5.0430188813129833E-03
               5.0960966904826455E-03
               6.4610775060806088E-03
               9.5385378085834007E-04
               3.2629550622916676E-03
              -1.7556414573017701E-03
               5.9463926875806547E-03
               6.7547754096318746E-03
              -2.1854089712348927E-03
               3.9065752860322097E-04
               2.8704223446415268E-03
               3.3579018448195428E-03
              -5.8991340296512124E-03
              -5.0779584427461917E-03
               3.8123990296851139E-03
              -6.7912020033842968E-03
              -4.0968675251168204E-03
               3.4241807853664574E-03
               1.4460015225989338E-02
               2.5197752918883565E-03
              -8.8136039730709534E-03
               1.4978770092185460E-02
              -4.7502036535070138E-03
               3.7027396394624284E-03
               5.9275482397699551E-03
              -4.1584798381393224E-03
               1.8372926483940354E-03
               1.8588188135304443E-02
              -1.4808811124019700E-03
              -3.2918025109955210E-03
              -7.6339745718063462E-03
               1.8797921448995766E-03
               3.1795558725647688E-03
              -2.7628273893970327E-03
              -9.2559555755815631E-03
               9.9739624216555259E-03
              -3.0982418311031991E-03
               3.3907414734383550E-03
              -1.0656288622180312E-02
               2.3715648856400141E-02
              -7.7595161537348219E-03
               2.7070162491324326E-03
               7.0880872782675373E-04
              -2.2344302263287619E-04
               6.3843582719587764E-03
               3.6723347156362102E-03
              -2.1103169104625904E-03
               4.5589692439585274E-03
               3.5026608773325377E-03
               4.2700618517466128E-03
              -7.4087515476950186E-03
               9.5052338338013709E-04
              -7.8221912609324224E-03
              -6.6657104589722179E-03
               4.7227085525117160E-03
               1.1601431613395295E-02
              -8.3662503554763473E-04
               3.5611437950308564E-03
              -2.0475468123287910E-03
              -3.7074760350607963E-04
              -7.5445672377198528E-03
               7.2314714133629781E-03
              -5.2836724452821832E-03
               1.0642001065786547E-03
               1.2824683292893416E-02
               8.9968089405765130E-04
              -5.4554100296376933E-03
              -5.0027016351771852E-03
              -6.5969131281455222E-03
               2.7560306898893861E-03
               6.4462708592026210E-03
              -5.2785766992404738E-03
              -1.4579726885132675E-03
               1.0142032317523987E-02
               8.2379091290606544E-03
              -1.7811363998149313E-02
               6.4933346381782593E-03
               6.4009370204705105E-03
               8.8050840519502335E-03
               9.8808448289143987E-03
              -4.2998595680757701E-03
              -6.2290641147854688E-04
               7.0541214960881905E-03
              -9.5908835058342457E-03
              -3.9678992596134640E-03
               5.3980596334061645E-03
               1.0643674662181703E-03
              -6.3507081431125869E-03
               7.6999597609161670E-03
              -3.9632237879952056E-03
               6.5111022005355079E-03
              -1.4895242202590395E-02
               8.6352488845021988E-03
              -4.2816284054658874E-03
              -4.1474011263718536E-04
               1.3163953008292341E-03
              -4.3898599919875913E-03
               3.1332090259700617E-03
              -1.7247912686756215E-03
               4.2488033917601840E-03
               1.6908191524437580E-03
               2.0791636340771052E-02
              -4.7659606418492288E-03
              -3.9252876139068919E-03
              -2.6955269539285357E-03
               4.0712345915460482E-03
               1.4276207952621510E-02
               5.0230712942230726E-03
              -4.4161730645047295E-03
              -2.1244817345074284E-02
               3.3525997550455100E-03
               3.5906094486671679E-03
              -1.1855413394801463E-02
               1.1451466061153090E-02
              -1.9797707465190992E-03
               1.3325742059662406E-03
              -4.1897924530833984E-03
               4.3031044393047084E-03
              -1.0381255405767639E-03
              -9.5261968673525724E-03
              -7.9051386894130622E-03
              -1.8873545224026894E-03
               1.3781115222155609E-03
               9.2188235733962863E-03
               1.2190913360660348E-02
              -2.1826460276156666E-03
              -2.0918160414919160E-02
              -6.8622156110722905E-03
               1.5667957087472557E-02
              -1.2776995320774173E-03
              -3.8826386715193613E-03
               5.6080981369745243E-03
              -1.8743896075570576E-03
              -7.6020283957697341E-03
               4.3004719376248468E-03
              -1.2851152009768543E-02
              -3.8064163434348223E-04
               1.8461593264178884E-03
               6.9268574217891572E-03
              -4.0498343409999561E-03
               2.5191861298477702E-03
               9.7744708422109194E-03
              -1.8863758993548002E-02
               1.3829788325589646E-02
               2.9210144700246251E-03
              -7.4727754372941194E-03
               1.0807767297138553E-04
              -2.9948566171704139E-03
              -9.3932447878468969E-04
               3.1469494998289395E-03
              -9.2101178208210525E-04
              -9.6894901987019926E-03
               3.3969802839645810E-03
               8.5910186219783895E-03
              -5.0336615357911042E-03
              -7.7921860917233472E-03
               6.2175948129834114E-03
              -4.3997632112729645E-03
              -3.6426477611492154E-03
              -2.7639768946525448E-04
               1.0058168219676457E-03
               1.7640355527873287E-02
              -7.6610928246081565E-03
              -1.7149480771002220E-03
               3.1948654016631058E-03
              -1.3673251994274304E-02
              -2.2482793320804553E-03
              -2.2218245762059951E-03
              -2.6623765538209133E-03
               1.1116300366717652E-02
              -5.5853871455701209E-03
               8.2625411933731005E-03
              -1.8481363330297889E-03
               2.9747633480780643E-03
              -3.0070841881408520E-04
              -1.2207488017792980E-02
               7.8974268337534924E-03
               3.3199217694613839E-03
              -1.5853950988081594E-02
              -5.9095171077862239E-03
              -1.5173791981176795E-03
               6.9530270019862593E-04
               1.4947207631063638E-02
               2.8149134552985493E-03
              -6.4319611759764881E-04
               3.1300264605628354E-03
               1.0249452320332834E-04
               7.5157941084350354E-03
               3.9623793905480837E-03
              -1.0981914479982311E-02
              -4.9965253564081833E-03
               8.9624159387984691E-03
              -1.0492055828397157E-02
               2.1836922943546874E-03
               5.5979017611583566E-03
              -6.7870647676819735E-04
              -6.9971027564629702E-03
               1.1943102506272190E-02
               9.9505460191792721E-03
              -7.7984379120801216E-03
              -7.7926116132345617E-03
              -1.7067443724589685E-03
              -1.2882317789413079E-03
               3.7945811541186328E-03
               4.1299529440455094E-03
               5.0525486381791610E-03
              -5.7189580394819105E-03
               3.5578022521587892E-03
              -1.7800411839161039E-03
               1.6697603962543780E-03
              -1.1409033991819152E-02
              -8.3572097408577285E-03
              -6.8403281378974857E-03
               5.0138455808305523E-03
               1.0485529097967092E-03
               7.3156265475129928E-03
              -6.3181607218616492E-03
               1.4859241023359565E-02
              -1.8817304547047883E-02
               1.9380457019528220E-02
               1.9865002892227755E-03
               1.4489844394423026E-03
              -5.0029668462873737E-03
               9.5303271004964843E-03
              -5.3344398231887358E-03
              -1.3806860829022392E-03
              -5.6434892796858732E-03
              -5.5971601724660548E-03
               1.0284626978059316E-02
              -5.3530485449938773E-03
              -5.0150610831806173E-03
              -1.1956539208448232E-03
               1.1454500822896608E-02
               5.7462442990915442E-03
              -4.2728495530307865E-03
              -3.3750571236465639E-02
               2.4068969194031460E-02
              -1.4258469771433319E-03
               1.4784521898606882E-02
              -1.0764945200241622E-02
               2.0501450311268942E-04
               2.9406516251565934E-03
              -3.2487032503143734E-05
              -1.7831694288941657E-03
              -2.2970126669221262E-03
               1.0567503352252707E-03
              -1.1050753005960322E-02
               6.1569050993567323E-04
              -3.0009795383713843E-04
              -3.8165563019538322E-03
               1.3976818472677109E-02
              -2.7626735408835864E-03
              -6.5487058854984204E-03
               8.7210572849148512E-03
               1.1007814500944482E-02
              -1.9173422339317056E-02
              -2.8769216352813919E-03
              -6.8579988281506779E-03
              -1.0875029888990917E-03
              -1.5575126631136764E-02
               8.4132535276204463E-03
               6.8178074285448849E-03
              -2.8495894689730557E-03
               7.8663402194796648E-03
              -5.3453478994892403E-03
               7.7078629359374922E-04
              -1.6457878019695258E-03
               7.4968686888320600E-04
               1.3121415075128109E-02
              -7.7160405183826124E-03
              -4.6634729830483859E-03
              -3.5866609026591169E-03
               1.4611399730159957E-02
               3.7041323749242693E-03
               9.9531816277216405E-03
               3.7232942783927575E-04
               3.6499523711249890E-03
              -9.5813128199270254E-03
              -8.3510705201074573E-04
               1.4811549486164052E-02
              -1.7533315216027752E-02
              -5.4697472926632613E-03
               9.6583690525127094E-03
              -4.0144457641434952E-03
               1.2176014210980322E-02
               2.2376571390480583E-03
               1.2972267697566040E-03
              -5.8946732761878786E-03
               1.4936173065161881E-03
               8.4248022051712425E-04
              -1.3640519257228640E-02
               6.9215848989974378E-03
              -2.7452442518317468E-03
               4.9173231588320390E-03
               8.9486340622652229E-03
               1.5896620727652105E-02
               1.3465699315282802E-03
              -1.8619296276965378E-02
               1.6074883111714844E-02
               3.5752795015321619E-03
              -8.9630620369797707E-03
               4.3504655655021212E-03
              -8.3490421171702172E-03
              -1.4500805554368359E-03
              -1.0413122619999863E-02
               4.3903605466900043E-03
               5.2351017749695181E-03
               9.5170671386216495E-03
              -4.3010855638470217E-03
              -9.7368300699090854E-04
               1.2824939719874337E-03
              -6.9940886340466909E-03
               3.0627413585076731E-04
              -1.4274755476808692E-02
               1.3793934770677056E-02
               6.5072950485370968E-03
              -7.2435687590321953E-03
              -1.2908490342913454E-02
               1.0900342576941570E-02
               1.8168764454423152E-03
              -5.4518043263784574E-03
              -1.1471076323037491E-02
              -4.5551094213924928E-03
              -6.6355362790455801E-03
               2.0859199323359126E-02
               6.8248107125562030E-03
              -8.8661513666042999E-03
              -1.1036178450021481E-02
              -4.8545204060540031E-03
               2.6584616564892223E-03
              -2.1582414163444047E-03
               5.0482924268883704E-03
               7.1769235267809105E-03
              -4.9218496477232004E-03
              -3.0006116095328819E-03
               7.1531114090212684E-03
              -9.8428509102771230E-03
              -2.1531584083139153E-03
               8.0465960441168365E-03
               3.9984168947880677E-03
               1.4890753345205940E-03
               1.7107268407480981E-02
              -6.9036553027110930E-03
              -2.1410659606640056E-02
               7.0214132166735079E-03
               3.0321329804727831E-03
              -2.4509773528437148E-03
              -5.1022894661606529E-03
               1.0586327686890001E-03
              -1.1287477667916660E-02
               1.3164758161148331E-02
              -2.6597692453968701E-03
              -5.1711422184537127E-03
              -2.1461371084382512E-03
              -6.1875800292828464E-04
              -4.4379992701927542E-03
               9.1744419299407791E-03
               6.6222740352476590E-03
              -2.2401542943631600E-02
               1.1785331324505923E-02
               1.2929633059882019E-02
              -1.6095683821017316E-02
              -4.0811932802337957E-03
               2.3965953225455878E-02
               2.0272468577221207E-03
               8.2265744406668697E-03
               8.0873502708683799E-03
              -4.5656867523278738E-03
               4.8531939705328663E-03
               1.6831781634777951E-03
               6.4379331987021206E-04
              -9.4896205796337115E-03
               6.7524277847268730E-04
              -1.7965659648609630E-03
              -5.1483487422343925E-03
               7.3210687632515505E-03
              -6.6682054120201818E-03
              -2.3205060384839122E-03
               9.7374829997065142E-03
               8.4120415053038256E-04
              -5.3559640415226581E-03
               3.5877314275184623E-03
              -2.1608883365359949E-03
               5.0561015153112255E-03
               1.6594615494957975E-03
              -1.3463797179255832E-02
               6.0343047809200750E-03
              -9.1435239062934038E-03
               1.9636861203877198E-03
               1.2720292347296429E-02
              -5.1842228605131569E-03
              -4.8160758288525703E-03
              -7.2528448164048262E-03
               6.5531716840721973E-03
              -1.3525322990746661E-02
              -5.2767885864469120E-03
               1.4252780199793518E-02
               3.6854629960021311E-03
               1.0612746115810425E-02
              -2.3934312221352450E-02
              -1.6511169758608508E-02
              -3.0953068065546870E-04
               6.8950695371124337E-03
              -9.9414427032002341E-03
              -9.9439600184245327E-03
               1.3971903149671160E-03
               6.8881501992291419E-03
               1.6878476141599659E-02
              -6.4979720633587344E-03
              -6.0714098201809959E-03
              -6.4103589771199810E-03
               1.3555533186298139E-03
               9.7698954619824755E-03
              -1.5948714382367352E-02
              -2.7075561158883543E-03
               2.6249286469984475E-02
               2.1850972939422173E-03
              -2.4578488149061994E-02
              -6.2540080395234897E-03
               3.4973832246229034E-03
              -1.2658990469771850E-03
               7.6278562558159942E-04
               5.8488212703394413E-04
              -2.2578828228541712E-03
               6.1468433267054161E-03
              -1.1591288688603789E-02
               1.6102106380053247E-03
              -2.6820417466874649E-03
               1.1860562373024530E-02
               3.9573007059777576E-03
               6.5896480084714302E-03
              -7.0438826861885387E-03
               1.2444166420825008E-03
              -1.1186089317879939E-02
               1.2845459028547085E-02
               1.2319227224759342E-02
               3.3616732770582617E-03
              -1.1296526272995978E-03
              -9.6190684102473705E-04
              -5.1020501050869959E-03
               6.9664447239720624E-03
               1.3553743329335710E-03
               7.2078274990069356E-03
              -5.2399227012694186E-03
              -2.2362133268886007E-03
              -4.0470269455290253E-03
              -1.6169263353610929E-03
               6.4828859568884364E-04
              -1.1065857945639771E-03
              -3.2481922901338877E-04
               2.6163702467270171E-03
              -9.8458598954858810E-04
               9.4893408489699800E-03
              -1.3104907545687581E-02
              -1.0834475715803323E-05
               4.6118429062821827E-03
               1.8204832094113796E-03
               1.5545851135844689E-03
               3.6058133823382897E-03
              -2.9454822731706074E-04
              -5.4234904301762041E-04
              -1.2894967704316947E-02
              -2.2383008976812244E-03
               3.4250655372469979E-03
              -9.6871837052306380E-03
               3.8608879945581298E-03
               3.4679150490993949E-03
               2.7278364381781541E-07
              -2.5087058601081470E-03
              -1.9901852811501182E-03
               1.7656832925605065E-03
               2.0386270265829831E-03
              -5.1723476214512471E-03
               6.8274145322531898E-05
              -2.7882922350333469E-03
              -2.2918154360291100E-03
              -4.0868644432895907E-03
               2.1069982623148167E-03
               7.4836887461998125E-03
               1.8259779430989803E-03
              -1.6455964714211901E-02
              -1.2726519322975336E-02
               1.7042295699380972E-02
               5.4341697013887075E-03
               1.5660305473085110E-05
              -2.2608990547479764E-03
              -1.4762813623012221E-02
               6.4693426141818897E-03
              -2.6501701807536732E-03
              -1.3235850576141054E-02
              -5.3097376710669747E-03
              -7.4334693251416470E-03
               1.7859580951468592E-03
              -3.3691013796991014E-03
               1.7871336165959120E-02
              -2.7297454095627153E-03
              -4.6823796702107649E-03
              -7.2289498774055719E-03
               1.1170929527069347E-03
               3.0623010137679628E-03
               1.7346170414700613E-03
               1.3816612363658662E-04
               4.7590169591569167E-03
              -1.1805332060132465E-02
               1.1536946516329187E-02
               8.7375432806876662E-03
               1.8355964141373530E-03
               7.4070060054742272E-04
               3.1342431006634963E-04
              -1.3391760510854871E-03
              -4.6119949525695570E-04
               9.1187537975157117E-03
               9.4143945417485587E-03
              -7.6434355090642591E-03
              -7.7391625025898256E-03
              -1.2676173184403307E-03
               4.3550115575445303E-03
              -6.0461928337859536E-04
               3.7983444310568338E-03
               2.1002501073412827E-03
              -5.8432799095002501E-03
               9.1175106790277530E-03
              -9.4568876093301391E-03
              -1.1873557308517049E-03
               2.0806755537298736E-02
              -1.6463030626910128E-04
              -1.4718225297674237E-03
               6.8185216232359621E-03
              -3.5997697488815931E-03
              -6.9692285455484355E-03
               3.1922148373565327E-03
              -8.4958939562980256E-05
               5.3377146079939273E-03
              -3.0940389912981711E-03
              -1.1830582885609122E-03
         &END THERMOSTAT_ENERGY
         &RNG_INIT
Wiener process for Thermostat # 1        1 F T T  -1.1313272618292174E+00        3182373136.0        1435170453.0        3525944586.0        2075114216.0         535397122.0        3750937411.0             12345.0             12345.0             12345.0             12345.0             12345.0             12345.0             12345.0             12345.0             12345.0             12345.0             12345.0             12345.0
Wiener process for Thermostat # 2        1 F T T   7.0467914756516004E-01        4072982743.0        1021444550.0        2273572090.0        2820500598.0        1521860394.0          92369436.0        3692455944.0        1366884236.0        2968912127.0         335948734.0        4161675175.0         475798818.0        3692455944.0        1366884236.0        2968912127.0         335948734.0        4161675175.0         475798818.0
Wiener process for Thermostat # 3        1 F T T  -1.0146023300509210E+00         817555864.0        4218660344.0         444449410.0         725281134.0        2939308303.0         340599341.0        1015873554.0        1310354410.0        2249465273.0         994084013.0        2912484720.0        3876682925.0        1015873554.0        1310354410.0        2249465273.0         994084013.0        2912484720.0        3876682925.0
Wiener process for Thermostat # 4        1 F T T  -2.5430793910512545E-01        2538778699.0         418914719.0        1994972507.0         940916894.0        2763846205.0        1787522676.0        2338701263.0        1119171942.0        2570676563.0         317077452.0        3194180850.0         618832124.0        2338701263.0        1119171942.0        2570676563.0         317077452.0        3194180850.0         618832124.0
Wiener process for Thermostat # 5        1 F T T   1.5514122368081695E+00         912877104.0        1671717668.0         277821399.0        3416960126.0        2946470741.0        4290991219.0        1597262096.0        3906379055.0        3312112953.0        1016013135.0        4099474108.0         275305423.0        1597262096.0        3906379055.0        3312112953.0        1016013135.0        4099474108.0         275305423.0
Wiener process for Thermostat # 6        1 F T T   1.9044352759266106E-01        3534197487.0        1934451935.0        3031915383.0        3974344528.0        3775203560.0        1075363475.0          97147054.0        3131372450.0         829345164.0        3691032523.0        3006063034.0        4259826321.0          97147054.0        3131372450.0         829345164.0        3691032523.0        3006063034.0        4259826321.0
Wiener process for Thermostat # 7        1 F T T   6.6556094158196655E-01        2802099689.0        1651173903.0        3746956975.0        4279195375.0        2659660704.0        4001449048.0         796079799.0        2105258207.0         955365076.0        2923159030.0        4116632677.0        3067683584.0         796079799.0        2105258207.0         955365076.0        2923159030.0        4116632677.0        3067683584.0
Wiener process for Thermostat # 8        1 F T T   2.4425421017825850E+00        1710872995.0        2121109553.0        1349100184.0        3118322696.0        3804302403.0        2609598590.0        3281794178.0        2616230133.0        1457051261.0        2762791137.0        2480527362.0        2282316169.0        3281794178.0        2616230133.0        1457051261.0        2762791137.0        2480527362.0        2282316169.0
Wiener process for Thermostat # 9        1 F T T  -1.1182378588026980E+00        1049789791.0        2492790320.0        3108465299.0        2016085012.0         729492837.0        2540503712.0        3777646647.0        1837464056.0        4204654757.0         664239048.0        4190510072.0        2959195122.0        3777646647.0        1837464056.0        4204654757.0         664239048.0        4190510072.0        2959195122.0
Wiener process for Thermostat # 10       1 F T T  -1.3048596824607934E+00        2708595139.0         786271255.0         884951597.0        1908896739.0        4015328436.0         477107193.0        4215590817.0        3862461878.0        1087200967.0        1544910132.0         936383720.0        1611370123.0        4215590817.0        3862461878.0        1087200967.0        1544910132.0         936383720.0        1611370123.0
Wiener process for Thermostat # 11       1 F T T   9.4675398084288279E-02        1768289183.0        1028002400.0        3246545620.0        3175494689.0        3036879016.0         874873995.0        1683636369.0         362165168.0         814316280.0         869382050.0         980203903.0        2062101717.0        1683636369.0         362165168.0         814316280.0         869382050.0         980203903.0        2062101717.0
Wiener process for Thermostat # 12       1 F T T   1.0203580164090378E+00        2408999640.0          78899484.0        2109895800.0        3532880196.0         573744521.0        3552875285.0         272317999.0         166758548.0         310112982.0         201045826.0        1680231254.0         118290799.0         272317999.0         166758548.0         310112982.0         201045826.0        1680231254.0         118290799.0
Wiener process for Thermostat # 13       1 F T T  -2.4300170178177832E-01        1934758653.0        2761893358.0         351345876.0         486242166.0        1964939452.0         228935866.0        2245755202.0        1652682525.0        2865544364.0         721509566.0         209733568.0         592362218.0        2245755202.0        1652682525.0        2865544364.0         721509566.0         209733568.0         592362218.0
Wiener process for Thermostat # 14       1 F T T   5.5312043181968218E-01        1707163609.0         935241509.0        3836610666.0        4113720300.0        2641512952.0        1313524052.0        3003961408.0        3529909391.0          14538032.0        3603919910.0         566682685.0        1235016484.0        3003961408.0        3529909391.0          14538032.0        3603919910.0         566682685.0        1235016484.0