 # Version information for this restart file 
 # current date 2022-11-29 21:33:51.693
 # current working dir /scratch/work/courses/CHEM-GA-2671-2022fa/wz2449/main/comp-lab-class/Week12/Runs/Proton
 # Program compiled at                              Sat Dec 12 18:27:15 EST 2020
 # Program compiled on                                         cs001.nyu.cluster
 # Program compiled for                                                nyu-intel
 # Source code revision number                                       git:8c64c6e
 &GLOBAL
   PRINT_LEVEL  LOW
   PROJECT_NAME proton_aimd_1ns_every0.5fs
   RUN_TYPE  MD
   WALLTIME 21600
 &END GLOBAL
 &MOTION
   &GEO_OPT
     OPTIMIZER  BFGS
     MAX_ITER  100
     MAX_DR     3.0000000000000001E-03
     &BFGS
     &END BFGS
   &END GEO_OPT
   &MD
     ENSEMBLE  NVT
     STEPS  2000000
     TIMESTEP     4.9999999999999994E-01
     STEP_START_VAL  2088
     TIME_START_VAL     1.0439999999999766E+03
     ECONS_START_VAL    -1.1027337638886459E+03
     TEMPERATURE     3.0000000000000000E+02
     &THERMOSTAT
       TYPE  GLE
       REGION  MASSIVE
       &GLE
         NDIM  5
         A_SCALE     1.0000000000000000E+00
         A_LIST     1.8595758612559999E+02    2.7263853498399998E-01    1.1526100454610001E+01   -3.6414578262600003E+01 \
             2.3173375816020001E+02
         A_LIST    -2.7809524712060002E-01    8.5951591808710006E-05    7.2189048017650004E-01   -1.9844539343859999E-01 \
             4.2409257583420001E-01
         A_LIST    -1.4825808131210000E+01   -7.2189048017650004E-01    1.3590902121280000E+00    5.1498896280349999E+00 \
            -9.9949268450990001E+00
         A_LIST    -1.0372189126880000E+01    1.9844539343859999E-01   -5.1498896280349999E+00    2.6661910891169999E+01 \
             1.1507715495310000E+01
         A_LIST     2.1801346360420001E+02   -4.2409257583420001E-01    9.9949268450990001E+00   -1.1507715495310000E+01 \
             3.0958394565589998E+02
         &THERMOSTAT_ENERGY
               8.2103919573342215E-03
               3.7622189305663760E-03
               1.5181745738778779E-03
              -1.7412242464503967E-03
              -9.9236651648260676E-03
              -4.4116340573445659E-03
              -8.9919540660920224E-03
              -3.2635436781608676E-03
               9.4882530740454125E-03
               9.2295731336593928E-04
               7.3738912138708989E-03
               9.7532928994517774E-05
              -1.0825920337120517E-02
               2.6387993149114249E-03
               1.2670383837387195E-03
              -8.5237014608105961E-03
               5.5085540309868916E-03
              -3.1994334354577486E-03
               3.2482095574731286E-03
               2.9008127260249155E-03
              -3.6360062577192151E-03
               7.9518382894315585E-04
              -8.0180187838951693E-03
               9.1792944666116221E-04
              -3.0283148719397763E-03
              -2.7597227701357105E-03
               8.0729744842799357E-03
               7.5007566752477136E-03
               4.8829179743565829E-03
               9.6888248618037397E-04
              -3.7627923002109412E-03
               5.5498374052072421E-03
               1.0215099578668950E-03
              -6.9088330573477625E-03
               7.0989126634883291E-03
               7.7164052048090204E-03
              -1.9804570419148931E-03
              -1.3103259947284294E-03
               6.2068931391110619E-03
              -3.7635687832883046E-04
              -2.4626673228571407E-03
              -3.1451922554887202E-03
               9.6153855649206300E-03
               4.4867203362943088E-03
               4.8939663180888387E-04
               5.7126428349525060E-03
              -5.9252277324067428E-03
               1.3518243236305934E-03
               6.7493645243180741E-03
               2.9146420611510420E-03
              -1.4119568582672951E-03
               7.9115750075837796E-03
              -8.6391478777004278E-03
              -9.3734792890872651E-03
              -6.1221975574923190E-03
              -2.1328208879586489E-04
               2.5721435204412520E-03
              -7.8086731780765200E-03
               2.3707999582390756E-03
               1.3384017304345441E-02
              -1.2325133876019446E-02
               3.8104077969905313E-03
               1.8214667086569238E-02
              -8.7987382044463699E-03
               1.2657310239868234E-02
               6.4383343179714378E-03
               1.6610966464923019E-03
               7.3062650064902555E-03
              -1.1416927369423187E-03
               2.6732098448121262E-02
               3.3472114914588329E-03
               2.4540007324968839E-02
              -5.6958380439198686E-03
               1.6188772037029574E-04
              -4.4369093216292763E-03
              -7.0356091468084490E-03
               6.9811237441058200E-03
               6.5481585743401051E-03
               7.8212854672453890E-03
              -3.5143754507890022E-03
               7.2552964349727753E-03
              -6.4393408320177047E-03
               7.8301213126461770E-03
               3.5792790646284214E-05
               6.1306690346054999E-03
               8.7275411961621266E-03
              -4.1304524380446966E-03
              -1.9823967479531547E-03
              -9.7520244805753096E-04
              -1.7787828435052281E-03
               4.2261586720041249E-03
              -5.7632247488757929E-03
              -1.6264773719429457E-03
               3.8385657132800929E-03
               3.3454609304898490E-03
              -6.2004220245247951E-03
               4.8030542971812582E-04
               5.4930026616978401E-03
               8.3015381754615036E-03
               3.5531307447842146E-03
              -1.1495258860830526E-03
               2.0152632666963312E-05
              -2.4320245596614852E-03
               7.7757065280469198E-03
              -7.8096387076379559E-03
               6.8328257206312828E-03
               8.5848659969566723E-03
              -1.2001383560110712E-03
               8.9472049734442959E-03
              -1.9109213080704926E-03
               2.5956519308371262E-03
              -3.0522632293005355E-03
               1.4606698567078643E-03
               4.0474458689334055E-03
              -1.9783555328662236E-03
              -9.9859739161934006E-05
              -8.2098101414726076E-03
               1.7855585506526240E-03
               1.0362102182803982E-03
               8.0398968372590832E-04
              -1.6100793496204632E-03
              -7.6425414358431455E-03
               3.4631839870656470E-03
              -2.2526979067573152E-03
               5.6709839801017533E-03
              -2.1051926320427004E-03
               7.3840532782974049E-03
               5.3267463004924246E-03
               3.5983253857432779E-03
               6.0454311016303625E-03
              -5.4940283659604240E-03
               4.2254981508024671E-03
               6.8733429114403998E-05
              -6.1518910459681247E-03
               1.0606300373939526E-03
               3.2652387641486703E-03
              -1.2574982645964972E-03
              -6.3187612472387598E-03
               1.1092949829050236E-02
              -1.3551512047160593E-02
               2.7472062513352962E-03
               8.2666528734280133E-04
               7.2525396221617142E-03
              -1.8912458110218867E-03
              -4.2544710885634406E-03
              -8.0273269254282024E-03
               1.3577009000212120E-02
               8.8748548263793816E-06
              -7.9165524216770113E-03
               7.5824407506351731E-03
              -6.8926365417259182E-03
               5.0273365768180572E-03
              -8.2822017445495395E-03
               3.2135894055043187E-03
               5.5105845289867231E-03
               2.5801813254589472E-04
               3.6428723176992776E-03
              -2.5905257187283453E-04
              -4.9542122885393594E-03
               4.0806577370902965E-03
              -4.4788087808255491E-03
              -8.2272602166316624E-03
              -2.3788262385103813E-04
              -1.0781828762548081E-03
               7.8301828841726897E-03
               1.4843609864221044E-02
               2.5267209935687504E-03
              -2.5310563119980360E-02
               5.1548094885814650E-03
              -9.7046386183500186E-03
              -7.8094104217831222E-04
              -1.4834309091299789E-04
               4.7018224323005188E-03
               3.0779984997164203E-03
               5.9476981073338276E-04
               2.2715950454527102E-02
               1.6889232529772598E-02
              -7.8479332646304832E-04
              -5.1276431014236797E-03
               3.2932241037264510E-03
               7.6107247252599078E-04
               7.2766922241809264E-04
               1.7862034363984369E-02
              -3.3624557318314529E-03
               1.5666325033647584E-03
              -3.1755801755202527E-03
               6.2180799338008696E-03
              -2.1722853331228521E-03
              -2.9534312326592194E-03
              -3.3527234949812328E-03
              -6.0372357078493791E-03
               9.3865462884059319E-03
               6.7636221274826351E-03
              -1.2997634749346955E-03
               4.5680494845006603E-03
              -1.9597053588601256E-03
              -3.3765240114911909E-03
               5.8731240986245577E-03
              -6.5216766584531571E-03
              -8.0308109583930101E-03
               1.2360676625309489E-02
              -2.4008054319755111E-03
              -1.8773390670545321E-03
               4.7556121679311831E-03
              -3.8884788652228867E-03
              -6.6998138857540749E-03
              -2.0587259189314990E-03
              -2.6766321070312029E-03
              -3.2511896778991377E-03
               1.4142322435319474E-02
              -3.5610298706050848E-03
              -1.0152560305403771E-03
               3.7828455133378383E-03
               4.8435252306880507E-03
              -6.1595162529495045E-03
               2.8315944726655354E-03
              -1.0816693699009047E-02
               4.7299845733223735E-03
              -5.4897680399864472E-03
               2.4845664513322148E-03
               3.9439075294577632E-03
              -3.6131607473333196E-03
              -8.4813291513866143E-03
               4.6224729367987886E-03
               9.0486889603598828E-03
              -1.1453589454949210E-02
              -1.0027190605516843E-03
               2.2526271045685007E-03
              -5.6864991685743813E-03
               3.6371346115580292E-03
               2.0233351724043259E-03
               2.7534816438232758E-03
               1.2682207225976653E-02
               1.1043892612261667E-03
               8.3078758724705517E-04
              -5.4328548416307260E-03
              -1.4564633126614084E-02
               1.0116522845980505E-03
               1.1165129269351877E-04
              -2.8804303221853567E-03
               5.4402241380372592E-03
               6.2864466317445892E-03
               1.5455794556381893E-03
              -4.4529185642617174E-03
              -7.1694807326357921E-03
              -1.5974047732106951E-03
              -1.4925535561662745E-03
               2.2438310463681130E-04
               1.1813157040865743E-03
              -1.7835097638125069E-03
               6.3119087850714095E-03
              -3.1230282616292338E-03
              -9.8974378349898258E-03
              -9.9347567623494937E-03
               6.6725412782940455E-03
              -7.2403483686134373E-03
              -6.0670060074380716E-03
              -5.1732650919257729E-05
              -4.0611361787554305E-03
              -4.9707415137544260E-03
               1.0255836960729344E-02
               1.0599487229758498E-02
               2.3376959563142486E-03
               3.2051151567900589E-04
              -3.5419894954385016E-03
              -1.1886181795783665E-03
               2.7787881826067881E-03
              -5.7050057769511562E-03
              -3.8925955021354105E-04
               1.1149336646657066E-02
               7.5925833460120549E-03
              -1.0350799877016873E-02
              -3.3592500470076798E-04
               2.6677128832230069E-03
               2.3597897322218215E-03
              -2.1140452902123148E-03
              -1.6569000865837617E-02
               1.4203137685478186E-02
               1.9378690754487228E-03
              -2.0506606786001229E-03
              -1.1436209748862433E-02
              -3.2710498692490529E-04
              -2.2931950307267753E-03
               4.5885007645783023E-03
              -5.3578857414104163E-03
              -1.3988410252496241E-02
               1.5654368699692917E-02
               1.0597909963843040E-04
              -1.0868046259780073E-02
               5.7079051608420082E-03
               9.7066551643475666E-03
               2.3919247216188707E-03
              -4.7491528130461716E-03
              -4.1480694961649987E-03
               8.5758013418845824E-03
               7.2981843308511539E-03
              -2.0118405304222854E-02
               1.9406481605927416E-02
               1.4699729906178058E-02
              -1.1476939444272465E-02
               3.1936045790505792E-03
              -5.3685317458937020E-04
               6.8713163434138665E-03
               1.4211263665182642E-02
               1.5427954997223730E-02
              -1.3126265578303951E-02
              -5.3446036983419007E-03
               6.5793259522059881E-03
               2.2224157951038414E-03
               6.5433195240731509E-03
              -5.7204138489239066E-04
              -5.1168196923486297E-03
               2.3465019139267862E-03
               4.2194879300109529E-03
               8.6917778634552391E-04
              -4.2997456517604327E-03
              -3.6366740837078422E-03
               1.7488879709857729E-03
              -1.7867425693098727E-02
              -5.4278701045704075E-03
              -8.0302463436242267E-04
               1.2426406775680469E-02
              -1.5068814477681076E-03
              -5.6333905506013261E-04
              -2.0798249850150666E-03
               2.3614041893319334E-02
               1.6623644249657891E-03
               4.3112409271171938E-03
              -2.4320349196302344E-03
               6.9024772351711043E-04
              -7.7127962400005291E-03
               6.8523646014561363E-03
              -4.9477564584251795E-04
               5.6761600351901901E-04
               6.9875699345692136E-03
              -6.8534831043237888E-03
              -3.5331938597903114E-03
              -7.2631753892541632E-04
               3.5716165942147882E-03
              -1.3430408547803374E-03
              -4.1480095033621378E-03
              -3.4217658564148884E-03
               9.1769955005033647E-03
              -1.2001919059458955E-03
               7.2312077357639106E-03
               5.9397653911354119E-03
               4.9767584127044370E-03
              -1.2272719596306212E-02
               9.9929728296507016E-03
              -1.0922689797981389E-03
              -3.6008627627488253E-03
               4.5360122726904985E-03
              -1.3616517955164588E-02
               2.9241383042808806E-03
              -1.3289730163988588E-03
               3.6205588428879468E-03
               6.2299900323866423E-03
              -6.7026936437706054E-03
              -1.2298423791638410E-02
               5.3133865953673871E-03
              -3.8265685286833074E-03
              -1.2840593458446601E-02
               2.5212204987851615E-02
              -8.6558710421703812E-05
              -5.9947130420503923E-03
              -4.5260221748498908E-03
               1.0972617637927109E-02
              -9.8216937600753001E-05
              -9.4288232308606112E-03
              -4.1842719880657714E-03
              -1.6506583648374326E-03
               9.2170378891681306E-03
               1.8632339834265799E-03
              -1.3286457163554780E-03
               2.0638969672224974E-03
               5.9421482217944781E-03
              -1.1153708999655346E-02
              -1.4873414758227427E-02
               4.6525084719848909E-03
               1.0354909207951592E-02
               4.2291107748831762E-03
              -1.1649718364781065E-03
              -8.0029787499149557E-03
              -1.8399707464754032E-03
              -1.8139226840434296E-02
               7.1883313189645718E-03
               2.7040607336951349E-03
               1.4049920966392110E-03
              -2.3215344168838251E-04
               6.9834648308117822E-03
              -3.9358686733848638E-03
               4.9992791418318064E-03
               2.3258299178291805E-03
              -7.1667137672425689E-03
               1.1513102470038774E-02
              -5.1449303824154810E-03
               6.7899814167164899E-03
              -8.4872129065282752E-03
               8.4127797140102923E-03
               2.6590506491152113E-03
              -4.4249504755299306E-04
              -3.1030528055645706E-04
              -5.5761956661051692E-03
              -1.1344688564995122E-02
               2.5128608291993520E-03
              -1.0844617414171528E-02
               2.1127714604900621E-03
               4.6779290112881847E-03
              -5.4928312246482975E-04
              -2.8487896170281772E-04
              -1.3043130160689306E-03
              -4.4996984695446973E-03
               1.4124851363853283E-02
              -6.1405272859097644E-03
               2.0664084835968406E-03
               5.1702487502559577E-03
              -5.4177258890013343E-03
               2.7178003025944693E-03
               8.9139393770420387E-04
              -3.2212179327887904E-03
              -1.0884786864325657E-03
               9.1551682305170481E-03
              -2.5494029420106747E-04
               1.0615732503908050E-03
               4.8688774797995315E-03
              -2.2017593794604181E-03
              -3.8325309891495230E-04
              -7.6097812787365212E-03
              -3.8576144902324134E-03
              -5.9908598346033355E-03
               9.9378868502860481E-04
              -7.8588661069243799E-03
              -9.0559368649351640E-03
               6.6942835103751515E-03
               1.6165751697359992E-02
               9.0327611554268106E-04
              -1.2160307445337247E-02
              -1.0348210566112782E-03
              -1.1390806205547213E-02
              -9.4374526343049357E-03
               1.1217612352580246E-02
              -3.5251309608530438E-03
              -3.6091649285168717E-04
               8.1636373166796249E-03
               1.9032562958810576E-03
               1.0220263203983015E-02
               2.7111897013309626E-03
               1.6743120080697289E-02
               5.5506983941831182E-03
              -1.0692018146387013E-02
              -3.4591612561434169E-03
              -1.2392893719164437E-02
               9.4582696310522817E-03
              -2.1737630126187906E-03
               1.6139129902398089E-03
              -2.3950322651937654E-03
              -1.2431452389288538E-02
              -2.0428994113335514E-02
               1.3655796477234694E-02
               1.3119110736234771E-03
               1.6502763098788370E-02
               5.4134673392937059E-03
              -2.0341681678136430E-03
               9.3563317325901559E-03
               7.2424402402910901E-03
              -7.1929240102248859E-03
              -8.3744853936795361E-03
              -1.2108538674358627E-03
               1.0183327306891138E-02
              -1.1073018667012706E-02
              -2.2382414966792617E-03
              -1.4395168047309310E-03
               1.3988614310598473E-03
              -6.5755222486309044E-03
              -6.0226486460204587E-03
               2.8177093088859809E-03
               3.4395093205924080E-03
               9.7135427220644121E-03
               9.6225623254264751E-03
              -9.2729902343274689E-03
              -2.9937456711317772E-03
              -1.0074909254200719E-02
               2.1047271328276931E-03
               1.1179706507230742E-03
              -5.3889761278418644E-04
              -3.4868778546389171E-04
               8.6889098908598649E-04
              -1.7312291096144585E-03
               1.7871198411495010E-02
              -1.2464959217588097E-03
               8.8342635298373409E-03
               5.3646797893672207E-03
               6.5672204960630571E-04
              -1.7561131928356124E-03
              -3.2749521456435387E-03
               7.0074814534680768E-04
               4.4233321626782748E-03
              -4.2875076669528405E-03
               1.6706745415520755E-04
               1.1417997217050701E-02
              -7.0563406143658305E-04
               1.5368106454591900E-02
              -1.8698978393242138E-02
               1.6200052493825490E-02
               1.2889437723383785E-02
              -1.7977286154942710E-02
              -1.2883290645402464E-02
               1.8797952288159877E-03
               7.3863886613694477E-03
               3.1924729996520335E-03
              -3.3355254229471749E-03
               5.2583444331121276E-03
              -7.6351305727169463E-03
               7.0237856783758584E-03
               5.5110763810434409E-03
              -2.1892244679927678E-02
              -1.3629239581759850E-03
               8.4205263480009486E-03
              -2.9152914645962265E-03
              -1.3889379314154101E-04
              -7.6500712445565378E-03
              -6.2773302155994118E-03
               1.0001288518352460E-02
               2.6402165270232999E-03
              -3.2604206968411841E-04
               4.3817365521246618E-03
              -2.0307939577602001E-03
              -3.0375098726464667E-03
              -4.0329677689892561E-03
               3.9345022517271185E-04
               9.4013480312112145E-03
               9.4063979665649968E-03
              -1.0078521924830724E-02
              -1.0783796660908567E-02
               5.1210193972850643E-03
              -2.6853541034788128E-03
               2.5091859793845758E-04
               7.1066156395262715E-03
               3.5677114173958270E-03
              -1.4035145195066706E-03
              -1.1440731630447086E-03
              -2.7781775416973534E-03
              -2.1759146023830243E-03
              -1.0669276297643744E-03
               6.2209841484757418E-03
              -3.7861903238036133E-03
               1.4710405198446384E-02
              -7.5782178712282687E-04
               2.7701456983881714E-03
               1.0319596963522112E-03
              -4.6156552620789243E-03
              -5.1231904853455430E-03
              -2.5475825508983798E-04
              -5.9511604882698486E-03
              -3.3574906777674848E-03
               5.5663184507245128E-04
              -4.3235617257477831E-04
              -2.8022911843172378E-03
               1.1507647220519829E-02
              -3.8866373811751033E-03
              -1.5519938597161971E-03
               4.7528602301769047E-03
               2.7591611315919151E-04
               9.1278251232888331E-04
              -1.0765724469713876E-02
              -4.9265096653957376E-03
               1.9490116971261550E-03
              -2.4217371765314771E-03
              -6.7335442822217323E-03
               8.7542236684206211E-03
              -9.2731005645258404E-03
              -6.9683099602525886E-04
              -1.2204255203941690E-03
              -5.8429744422925645E-03
              -1.2917448092819102E-03
               6.7303242991430855E-03
               9.3368635958598484E-03
               5.0195804127443231E-03
              -4.0754836213705691E-03
         &END THERMOSTAT_ENERGY
         &RNG_INIT
Wiener process for Thermostat # 1        1 F T T   5.9860321822411988E-01        3950393531.0        1964554988.0        2835691446.0        2622323440.0        3613794411.0        3642206617.0             12345.0             12345.0             12345.0             12345.0             12345.0             12345.0             12345.0             12345.0             12345.0             12345.0             12345.0             12345.0
Wiener process for Thermostat # 2        1 F T T   2.3029486936505195E-01        3085389139.0        2263033017.0        2492352494.0        3879465347.0        4040009263.0        4182013781.0        3692455944.0        1366884236.0        2968912127.0         335948734.0        4161675175.0         475798818.0        3692455944.0        1366884236.0        2968912127.0         335948734.0        4161675175.0         475798818.0
Wiener process for Thermostat # 3        1 F T T   1.1152220483700499E+00        1429795163.0        2450819104.0        2102811633.0        2351066619.0        3029682226.0        2857817129.0        1015873554.0        1310354410.0        2249465273.0         994084013.0        2912484720.0        3876682925.0        1015873554.0        1310354410.0        2249465273.0         994084013.0        2912484720.0        3876682925.0
Wiener process for Thermostat # 4        1 F T T  -5.6902502715519809E-01         379209139.0         427404085.0        3342291248.0        1363769196.0         212128992.0        3430759641.0        2338701263.0        1119171942.0        2570676563.0         317077452.0        3194180850.0         618832124.0        2338701263.0        1119171942.0        2570676563.0         317077452.0        3194180850.0         618832124.0
Wiener process for Thermostat # 5        1 F T T   1.3068633967607357E+00        1510592449.0        1792070825.0        4237560575.0        3258674454.0        2877784786.0        3951099261.0        1597262096.0        3906379055.0        3312112953.0        1016013135.0        4099474108.0         275305423.0        1597262096.0        3906379055.0        3312112953.0        1016013135.0        4099474108.0         275305423.0
Wiener process for Thermostat # 6        1 F T T   6.5693297807657580E-01         510156804.0        2496576079.0           7416457.0        1320732654.0          29401872.0         879322192.0          97147054.0        3131372450.0         829345164.0        3691032523.0        3006063034.0        4259826321.0          97147054.0        3131372450.0         829345164.0        3691032523.0        3006063034.0        4259826321.0
Wiener process for Thermostat # 7        1 F T T  -5.1984421419035287E-01        2823953285.0        3009866634.0        1499073205.0        4248911665.0        2710260201.0         791459536.0         796079799.0        2105258207.0         955365076.0        2923159030.0        4116632677.0        3067683584.0         796079799.0        2105258207.0         955365076.0        2923159030.0        4116632677.0        3067683584.0
Wiener process for Thermostat # 8        1 F T T   1.2135106582703470E+00        3449021386.0         554452122.0        3402320733.0         575683566.0        1215887617.0         140936852.0        3281794178.0        2616230133.0        1457051261.0        2762791137.0        2480527362.0        2282316169.0        3281794178.0        2616230133.0        1457051261.0        2762791137.0        2480527362.0        2282316169.0
Wiener process for Thermostat # 9        1 F T T   1.8828177032933759E+00         117713059.0        2742274734.0         874620707.0         517165416.0         516217261.0        4240568495.0        3777646647.0        1837464056.0        4204654757.0         664239048.0        4190510072.0        2959195122.0        3777646647.0        1837464056.0        4204654757.0         664239048.0        4190510072.0        2959195122.0
Wiener process for Thermostat # 10       1 F T T  -7.4300577137440604E-01         402928845.0        3405397880.0         205851403.0        1655563276.0        2315238605.0        1267643874.0        4215590817.0        3862461878.0        1087200967.0        1544910132.0         936383720.0        1611370123.0        4215590817.0        3862461878.0        1087200967.0        1544910132.0         936383720.0        1611370123.0
Wiener process for Thermostat # 11       1 F T T   2.4126958102884344E+00        3364106312.0        2800524561.0        1086530081.0         339272173.0         152430920.0        1804533232.0        1683636369.0         362165168.0         814316280.0         869382050.0         980203903.0        2062101717.0        1683636369.0         362165168.0         814316280.0         869382050.0         980203903.0        2062101717.0
Wiener process for Thermostat # 12       1 F T T  -9.7597582339040159E-02        3479142260.0        1474859096.0        3978087275.0        2584958951.0        3682330302.0         121805407.0         272317999.0         166758548.0         310112982.0         201045826.0        1680231254.0         118290799.0         272317999.0         166758548.0         310112982.0         201045826.0        1680231254.0         118290799.0
Wiener process for Thermostat # 13       1 F T T  -1.6117860919051549E-01         884167418.0        1394234963.0         774886743.0        2333435943.0          54824255.0        1060921572.0        2245755202.0        1652682525.0        2865544364.0         721509566.0         209733568.0         592362218.0        2245755202.0        1652682525.0        2865544364.0         721509566.0         209733568.0         592362218.0