 # Version information for this restart file 
 # current date 2022-11-29 21:33:40.096
 # current working dir /scratch/work/courses/CHEM-GA-2671-2022fa/wz2449/main/comp-lab-class/Week12/Runs/Proton
 # Program compiled at                              Sat Dec 12 18:27:15 EST 2020
 # Program compiled on                                         cs001.nyu.cluster
 # Program compiled for                                                nyu-intel
 # Source code revision number                                       git:8c64c6e
 &GLOBAL
   PRINT_LEVEL  LOW
   PROJECT_NAME proton_aimd_1ns_every0.5fs
   RUN_TYPE  MD
   WALLTIME 21600
 &END GLOBAL
 &MOTION
   &GEO_OPT
     OPTIMIZER  BFGS
     MAX_ITER  100
     MAX_DR     3.0000000000000001E-03
     &BFGS
     &END BFGS
   &END GEO_OPT
   &MD
     ENSEMBLE  NVT
     STEPS  2000000
     TIMESTEP     4.9999999999999994E-01
     STEP_START_VAL  2087
     TIME_START_VAL     1.0434999999999766E+03
     ECONS_START_VAL    -1.1027337638886459E+03
     TEMPERATURE     3.0000000000000000E+02
     &THERMOSTAT
       TYPE  GLE
       REGION  MASSIVE
       &GLE
         NDIM  5
         A_SCALE     1.0000000000000000E+00
         A_LIST     1.8595758612559999E+02    2.7263853498399998E-01    1.1526100454610001E+01   -3.6414578262600003E+01 \
             2.3173375816020001E+02
         A_LIST    -2.7809524712060002E-01    8.5951591808710006E-05    7.2189048017650004E-01   -1.9844539343859999E-01 \
             4.2409257583420001E-01
         A_LIST    -1.4825808131210000E+01   -7.2189048017650004E-01    1.3590902121280000E+00    5.1498896280349999E+00 \
            -9.9949268450990001E+00
         A_LIST    -1.0372189126880000E+01    1.9844539343859999E-01   -5.1498896280349999E+00    2.6661910891169999E+01 \
             1.1507715495310000E+01
         A_LIST     2.1801346360420001E+02   -4.2409257583420001E-01    9.9949268450990001E+00   -1.1507715495310000E+01 \
             3.0958394565589998E+02
         &THERMOSTAT_ENERGY
               8.0405807521488609E-03
               3.4910336609865183E-03
              -2.3624501029743169E-06
              -1.5585153326564914E-03
              -9.8636699773258698E-03
              -4.4219687302737825E-03
              -9.0323471830053362E-03
              -3.4409595107241131E-03
               9.3270645973783338E-03
               1.0508330756690675E-03
               6.8638836978259007E-03
               5.2620450678531991E-05
              -1.1110624796172678E-02
               2.6492336717311516E-03
               7.0708932899490916E-04
              -7.7763140405253360E-03
               5.5014545960307129E-03
              -3.0701667460376041E-03
               3.5383051719713420E-03
               3.2234220358630244E-03
              -2.5722542310110232E-03
               7.8066313455316528E-04
              -7.9298996476946260E-03
               1.0616730194988014E-04
              -3.1951984967038935E-03
              -2.5501017296196476E-03
               7.9190541235797315E-03
               7.4824435729055018E-03
               4.8884132000841960E-03
               1.0505673959068740E-03
              -2.7617564088537857E-03
               5.2930659735322128E-03
               7.1297733203778176E-04
              -6.9757736722899401E-03
               7.6316081208444263E-03
               7.6859483862721954E-03
              -1.8384668484243993E-03
              -1.4450335703851840E-03
               5.9169380649701855E-03
              -4.3989312515975014E-04
              -2.3794667053626782E-03
              -3.1602934125139833E-03
               9.8974321646961832E-03
               5.4001874080728384E-03
               4.3846723776259011E-04
               5.5765168326194865E-03
              -5.9123962816108591E-03
               1.5142938608494760E-03
               6.4798767990789400E-03
               3.0984970268065244E-03
              -1.4347911807317212E-03
               7.9207055114068389E-03
              -8.8365956413667349E-03
              -9.1567957357857246E-03
              -6.4023332494977849E-03
              -5.3940428827124569E-04
               2.5611223064846171E-03
              -8.1381510212736076E-03
               1.9937719026917335E-03
               1.3707757092091129E-02
              -1.2390440512541841E-02
               3.9145358415353642E-03
               1.8125903823558123E-02
              -8.8032332596904017E-03
               1.2669729126264490E-02
               6.4168165317625937E-03
               1.9030366743749264E-03
               7.1681636197942888E-03
              -1.0871357400971556E-03
               2.6866916642875986E-02
               3.3493600162916785E-03
               2.4583161597943541E-02
              -6.5041603810432874E-03
               2.1402994386073140E-04
              -4.4659072143166103E-03
              -7.2109958265151692E-03
               6.8092455221552568E-03
               6.4178897088748100E-03
               7.5949755247366763E-03
              -4.7742501577737262E-03
               7.3845418609480929E-03
              -6.0334324415992728E-03
               7.5202565189911429E-03
               1.2373041553151280E-04
               6.2357937274802209E-03
               8.5282476101927584E-03
              -4.1708363083514466E-03
              -1.8671877539477644E-03
              -7.6720103926892439E-04
              -1.5005661763038852E-03
               4.2576960342555134E-03
              -5.8237471398841188E-03
              -1.6360713840096125E-03
               4.0732679554866024E-03
               2.9598826850972199E-03
              -5.9513424050704573E-03
               7.4218491497195108E-04
               5.3912601937452379E-03
               8.1959847571076005E-03
               3.8742584264205549E-03
              -1.1921595903267275E-03
              -1.9494014745765232E-04
              -2.8576410893220924E-03
               7.5750684990347379E-03
              -7.9773029352796961E-03
               6.8528525290782313E-03
               8.5912330455697461E-03
              -1.4416822055073318E-03
               8.6249797591075057E-03
              -1.8829600780725965E-03
               2.6820485586019787E-03
              -2.4868556082247068E-03
               1.7162271266303970E-03
               3.9611894401379022E-03
              -1.2166875885225806E-03
              -3.8997358093854076E-04
              -8.2067619801577413E-03
               1.1814079592406608E-03
               9.4572752523275653E-04
               7.3896882772008302E-04
              -1.4586397152618758E-03
              -7.6110312026253695E-03
               3.4787291609153794E-03
              -2.3023720106595592E-03
               5.4946667861732745E-03
              -1.8515754062881236E-03
               7.3253090845294289E-03
               5.3818134504044325E-03
               3.7200632481800867E-03
               5.9365155158327765E-03
              -5.4497992045235248E-03
               4.3199467004763339E-03
               6.4680189430185809E-06
              -6.3246894585713958E-03
               1.2695393859493611E-03
               3.3248139465313917E-03
              -1.1810161214209781E-03
              -6.2786935273250952E-03
               1.1497215607413749E-02
              -1.3333415234894102E-02
               2.6241396618660183E-03
               1.1245078747956132E-03
               7.2611276278131505E-03
              -1.8222201691681628E-03
              -4.2773194447279688E-03
              -8.1576055493392721E-03
               1.3721195662091654E-02
               2.3622112831106076E-05
              -8.1422964768056525E-03
               7.5553977512388976E-03
              -6.4694612731173292E-03
               4.9555576241048765E-03
              -7.8817545613756659E-03
               3.1676425425939216E-03
               5.7019631322035762E-03
               1.9727553703423236E-04
               3.7270659298532733E-03
              -1.8513419884602048E-04
              -4.5853252433623237E-03
               3.9871600093482904E-03
              -4.4719048955241892E-03
              -8.2142345164393366E-03
              -1.9173952115024260E-04
              -8.7504773596149932E-04
               7.1807524016113608E-03
               1.4972969731233455E-02
               2.5387374324996330E-03
              -2.5509728335943400E-02
               5.1689687137483802E-03
              -8.0777439900809721E-03
              -6.2358232511570565E-04
              -1.3751181932759182E-04
               4.7229846173134004E-03
               3.0915896331734777E-03
               2.7945067249618939E-03
               2.3239021811245215E-02
               1.6966219896703241E-02
              -8.5777969454812640E-04
              -5.0818201284342692E-03
               3.0391835504591236E-03
               4.2014462139993423E-04
              -4.5475528958276374E-04
               1.7829397858983069E-02
              -3.4023275400000674E-03
               1.4806260384131874E-03
              -3.7011452583659921E-03
               5.6448478380113848E-03
              -1.9783611144191800E-03
              -2.9468279394174188E-03
              -3.2772849673464639E-03
              -6.1878640337687009E-03
               9.5102008900788803E-03
               6.9326719063610986E-03
              -1.1306183305973430E-03
               4.6900798801231963E-03
              -1.8321229393931469E-03
              -4.3382239899736434E-03
               5.7621617237216052E-03
              -6.5095347048956453E-03
              -7.9238789938564421E-03
               1.2793563580964755E-02
              -2.6622855121216757E-03
              -2.3262232224602660E-03
               4.6846973663192820E-03
              -4.2645203106344174E-03
              -6.8118973346906458E-03
              -2.8282615157041776E-03
              -1.7572285154738097E-03
              -3.5621583883066218E-03
               1.4776347589239775E-02
              -3.7978673971881074E-03
              -8.1154231172830393E-04
               3.7319607866588135E-03
               5.5318699453312473E-03
              -5.8687275853033663E-03
               3.1150326575083982E-03
              -1.0866837537991711E-02
               4.9889916901233811E-03
              -5.4733037870619908E-03
               2.4675736201116311E-03
               3.9942379071676130E-03
              -3.6971118295921254E-03
              -8.4779982325513589E-03
               4.6019365106401613E-03
               9.2703342529327493E-03
              -1.2206026189493947E-02
              -1.6262160680699327E-03
               2.4289394178658519E-03
              -5.5837320436132199E-03
               3.6146475463096021E-03
               1.8943728964413949E-03
               3.0701420231639704E-03
               1.2666264343718247E-02
               1.1635778706944966E-03
               1.0693504014270870E-03
              -5.0590689633961310E-03
              -1.5541213892531618E-02
               9.4397973108728528E-04
               1.5774969926450811E-04
              -2.8088655994215903E-03
               5.1598553172332324E-03
               7.2220270599196185E-03
               1.4963702363886503E-03
              -4.3962000259732681E-03
              -6.9246475790550720E-03
              -1.5886990217488881E-03
              -2.9253794152388077E-04
               4.2452503735628092E-04
               9.4534322154650333E-04
              -1.6655247523228547E-03
               6.5633849900685820E-03
              -2.4865543552054360E-03
              -9.8549475079046951E-03
              -9.9321867828864405E-03
               7.3457724282428747E-03
              -7.2750273179684882E-03
              -5.9340461102489507E-03
              -6.4654859029499479E-05
              -5.3017176611176269E-03
              -4.9973245184665978E-03
               1.0433243551703515E-02
               1.0595652823926230E-02
               1.9488210752059486E-03
               3.3039670357837004E-04
              -3.3496126535457328E-03
              -9.3597394910864638E-04
               2.7090654182812981E-03
              -5.6971734190970911E-03
              -3.0490518147084417E-04
               1.1796454939423058E-02
               7.8482174806870694E-03
              -1.0330059186177024E-02
               2.7259879922774197E-04
               3.0202389502635078E-03
               2.4558673383236265E-03
              -2.1364455788045263E-03
              -1.6587270389478336E-02
               1.4192043605087653E-02
               1.9996622912974117E-03
              -2.0921531692188601E-03
              -1.1319324048428349E-02
              -3.0611337466411592E-04
              -2.9254357915151140E-03
               4.7018472603026175E-03
              -5.4185814982702710E-03
              -1.3952435495540167E-02
               1.5406642587399575E-02
               3.0820873228457529E-04
              -1.0963144260676540E-02
               5.7197501383052891E-03
               9.3736298174615790E-03
               2.5504254766943288E-03
              -5.1324378736018108E-03
              -4.3776463736491080E-03
               8.5369506771526861E-03
               7.2432168493986307E-03
              -2.0081410907232911E-02
               1.9409927728648319E-02
               1.4676151457757039E-02
              -1.1863873919191846E-02
               3.2933682787235873E-03
              -4.0521537247134760E-04
               6.7566182592300565E-03
               1.4212460045129455E-02
               1.5325370437692653E-02
              -1.2751188871672215E-02
              -5.1982296320291941E-03
               6.4494288251718979E-03
               2.7604493709298206E-03
               6.4510083242217920E-03
              -7.3426590717355373E-04
              -5.0834915653347095E-03
               2.4719517471001417E-03
               4.0080240980039129E-03
               1.8919376150478093E-03
              -4.4051674037553726E-03
              -3.6536887969028896E-03
               7.0810897839538082E-04
              -1.7830061766105555E-02
              -5.4779049172673780E-03
              -1.1546881679012854E-03
               1.2347984833563103E-02
              -1.3810066044083909E-03
              -1.0194515470532150E-03
              -2.0961587663960758E-03
               2.3613728096157187E-02
               1.7437685329923464E-03
               4.5670329090232841E-03
              -3.8514044279344488E-03
               7.3170669739869298E-04
              -7.7246878279523179E-03
               6.6580145824855870E-03
              -9.4731087968070722E-04
              -4.9524584613430808E-05
               7.0342434274717324E-03
              -6.9401543668503795E-03
              -3.3928281130669231E-03
              -8.2448059666469546E-04
               3.4592523109489254E-03
              -1.3644282623719709E-03
              -4.2491381686468061E-03
              -3.3464123175598309E-03
               9.0892728549284985E-03
               5.6491460365898209E-04
               7.5448899956450204E-03
               5.9752632901814437E-03
               5.2325076030171483E-03
              -1.2506983609748499E-02
               9.8796778146245743E-03
              -1.0560604091993204E-03
              -3.4831262147786363E-03
               4.2668185041240337E-03
              -1.3418028251564055E-02
               2.7284045318691579E-03
              -1.1818472869998761E-03
               3.9868911119634145E-03
               6.1150325373317931E-03
              -6.4842395105133141E-03
              -1.2641457643776525E-02
               5.3386460173933037E-03
              -3.8050984602740071E-03
              -1.2960820532460195E-02
               2.5114698006979203E-02
              -3.5094555850431167E-04
              -5.9887708691585334E-03
              -4.5231992800454004E-03
               1.0215413365876336E-02
              -8.0087103759630466E-05
              -9.4454061649592701E-03
              -3.9881340550775544E-03
              -2.5115428082066430E-03
               8.9793897411117717E-03
               1.5386360900319712E-03
              -1.1858934327386632E-03
               1.7671311690882685E-03
               6.1753389552789625E-03
              -1.1092213528961769E-02
              -1.4875875702800131E-02
               4.3994780992887344E-03
               1.0739476618612966E-02
               3.5840042725610228E-03
              -6.5851056268250428E-04
              -7.9123185241493140E-03
              -1.2071681586690044E-03
              -1.8717363041873821E-02
               7.4070914180802945E-03
               2.8835635223812329E-03
               1.2674266404678583E-03
               3.3609787739949533E-05
               6.8324574511851241E-03
              -4.0009462588649616E-03
               5.4574446177260349E-03
               2.2447585381490994E-03
              -7.1731983282325258E-03
               1.1446038222328840E-02
              -5.1797052643919881E-03
               6.8397212768355007E-03
              -8.6646460000580350E-03
               8.4088588615852458E-03
               2.1827295321286827E-03
              -3.7889843864331114E-04
              -1.5548809123808318E-04
              -5.6403441647474963E-03
              -1.1335265754713894E-02
               2.3226385507059237E-03
              -1.1103418671174587E-02
               2.3684622975376391E-03
               4.6509710748641334E-03
              -6.3720265133799300E-04
              -2.8738841652157458E-04
              -1.3461451964249149E-03
              -4.5048300229292076E-03
               1.4051811850819161E-02
              -5.9575048022152220E-03
               1.9856994274767186E-03
               5.1430749138199816E-03
              -5.1342776370200665E-03
               2.9286440653802127E-03
               8.5872862162647383E-04
              -3.1743304013288126E-03
              -8.9959410994137662E-04
               1.0314800687366661E-02
              -2.4683506890979144E-04
               7.2101654717719678E-04
               4.9084182943239050E-03
              -1.8514054850518641E-03
              -3.7566347793418923E-04
              -7.5947921977845200E-03
              -3.1958981501721360E-03
              -5.9440547790229076E-03
               4.3586596180006506E-04
              -8.1876457379088750E-03
              -8.9549006154056345E-03
               6.5138647846164910E-03
               1.6039695868005070E-02
               9.3339373310918688E-04
              -1.1509744811554362E-02
              -9.2932607958055987E-04
              -1.1161981979301848E-02
              -9.5936889331999231E-03
               1.1255663578972619E-02
              -3.8517169535096938E-03
              -4.3045841337423083E-04
               8.2467582424159448E-03
               1.6466572719358039E-03
               9.9603468740070440E-03
               3.7604604627282465E-03
               1.6864379887809349E-02
               5.7096606288607986E-03
              -1.0683743891468181E-02
              -3.4306368457907863E-03
              -1.2282246734461884E-02
               1.1091313916263649E-02
              -2.0634724893681638E-03
               1.5986986259478686E-03
              -2.9068964729725244E-03
              -1.2683391616059522E-02
              -2.0497057710500373E-02
               1.3760570123062702E-02
               1.0124771234901685E-03
               1.6211232923783705E-02
               5.4509781673069239E-03
              -1.9331671608950158E-03
               1.0454106684370489E-02
               7.5483899962126956E-03
              -7.3218334551287383E-03
              -8.5408608216641889E-03
              -1.1438573701749936E-03
               1.0228047177386927E-02
              -1.0214623008712242E-02
              -3.0225215415737713E-03
              -1.5189913503610782E-03
               1.2109774807101108E-03
              -6.2686379966059710E-03
              -6.0113522704094424E-03
               2.8246459250088622E-03
               3.5827382826028936E-03
               1.0033480482198881E-02
               9.9167812100782720E-03
              -9.2684276566893237E-03
              -3.0058380788472202E-03
              -1.0398465125862691E-02
               3.2702457623866870E-03
               8.2601162259115981E-04
              -2.4825109639346461E-04
              -5.1825470219447011E-04
               1.1582130494766337E-03
              -1.7459470276865842E-03
               1.7768879720766878E-02
              -1.0926365657153599E-03
               8.7400240659163651E-03
               5.1920902837760009E-03
               5.8694215551829162E-04
              -1.8428597754656750E-03
              -3.4279489134226011E-03
               6.9984012317430319E-04
               3.9116992971811046E-03
              -4.0189436185662647E-03
              -3.6958622738782654E-05
               1.1436237280860087E-02
              -1.1015791217694130E-03
               1.4858634546418215E-02
              -1.8695517445801956E-02
               1.6273764217843590E-02
               1.3127317900868123E-02
              -1.7815349017854625E-02
              -1.3334704701546119E-02
               1.8696943124609168E-03
               7.6286956741872785E-03
               3.2043791530746062E-03
              -3.3787546393531358E-03
               5.2899296338284139E-03
              -7.1645720102977454E-03
               7.0022511120969681E-03
               5.3831320682220423E-03
              -2.2099820943820358E-02
              -1.2885369376065380E-03
               8.3778593408693480E-03
              -2.0708720178465602E-03
              -4.3775720942421310E-04
              -7.4123588320795068E-03
              -6.4826474824980131E-03
               9.9547495301198601E-03
               2.5447820483138935E-03
              -5.3814968874968709E-05
               4.5908616586895473E-03
              -1.4650866216742533E-03
              -2.9213670290241492E-03
              -4.3013851331093816E-03
               8.4370266122265345E-05
               9.4017301795043719E-03
               8.6766365662332527E-03
              -9.9329107662823289E-03
              -1.0974695306952432E-02
               4.7448825786567768E-03
              -1.3381845370983589E-03
               7.0062089428988097E-04
               6.8852584385265640E-03
               3.5441945615502088E-03
              -1.3715885853275607E-03
              -4.1274012621861161E-04
              -2.6989894597000594E-03
              -2.4106712275457987E-03
              -1.1039527374147240E-03
               6.1872514563692674E-03
              -3.5862199103005961E-03
               1.4781557852442366E-02
              -3.3107018679550315E-04
               2.9084472546881675E-03
               1.2686202305232785E-03
              -4.2148343344344140E-03
              -4.5847228083377781E-03
              -2.5900513659797228E-04
              -5.2988174538877476E-03
              -3.6020614389704903E-03
               3.4716889012619879E-04
              -4.5830672135552318E-04
              -7.6539147582455470E-04
               1.1554229574586449E-02
              -3.7823508543932361E-03
              -1.9777248794475375E-03
               4.7618937989464174E-03
               5.8697055829195588E-04
               8.3293761353104841E-04
              -1.0764056524460126E-02
              -4.9537882609792467E-03
               1.8432614293641021E-03
              -2.2297200180085271E-03
              -5.9332871583721372E-03
               9.0611644224637498E-03
              -9.5520303890499671E-03
              -1.2085162432121917E-03
              -1.2208935585814207E-03
              -5.4463952302772484E-03
              -1.5402706069131918E-03
               6.6936143672978957E-03
               9.2747036112057740E-03
               5.1889266722307667E-03
              -4.3266126651833178E-03
         &END THERMOSTAT_ENERGY
         &RNG_INIT
Wiener process for Thermostat # 1        1 F T T  -7.8382667211252222E-01        3736583366.0        4250311281.0         702053742.0        2748664972.0        3424108434.0        1596516006.0             12345.0             12345.0             12345.0             12345.0             12345.0             12345.0             12345.0             12345.0             12345.0             12345.0             12345.0             12345.0
Wiener process for Thermostat # 2        1 F T T   9.8354428782259451E-01        2209356238.0        1923571033.0        1482457811.0        2060953955.0        3560863262.0         106876778.0        3692455944.0        1366884236.0        2968912127.0         335948734.0        4161675175.0         475798818.0        3692455944.0        1366884236.0        2968912127.0         335948734.0        4161675175.0         475798818.0
Wiener process for Thermostat # 3        1 F T T   1.4890812148874271E+00         878934679.0        2846751778.0        3574435114.0        4141932003.0         199678752.0        3479768371.0        1015873554.0        1310354410.0        2249465273.0         994084013.0        2912484720.0        3876682925.0        1015873554.0        1310354410.0        2249465273.0         994084013.0        2912484720.0        3876682925.0
Wiener process for Thermostat # 4        1 F T T  -4.5485644070055793E-02          11926628.0        3072087321.0         371590681.0        2422645038.0         994099368.0        3426592844.0        2338701263.0        1119171942.0        2570676563.0         317077452.0        3194180850.0         618832124.0        2338701263.0        1119171942.0        2570676563.0         317077452.0        3194180850.0         618832124.0
Wiener process for Thermostat # 5        1 F T T   3.5166806571491277E-01        1868122881.0        2997691157.0        1992916337.0        1197542648.0         574435815.0        2228805072.0        1597262096.0        3906379055.0        3312112953.0        1016013135.0        4099474108.0         275305423.0        1597262096.0        3906379055.0        3312112953.0        1016013135.0        4099474108.0         275305423.0
Wiener process for Thermostat # 6        1 F T T   6.0508968067120054E-03        1090039287.0        3907453611.0         302555470.0        3022911674.0        1743909112.0         614945883.0          97147054.0        3131372450.0         829345164.0        3691032523.0        3006063034.0        4259826321.0          97147054.0        3131372450.0         829345164.0        3691032523.0        3006063034.0        4259826321.0
Wiener process for Thermostat # 7        1 F T T   5.1250603141137378E-02         626377191.0         877070842.0         715785159.0        2220736498.0        2309042191.0        2133862590.0         796079799.0        2105258207.0         955365076.0        2923159030.0        4116632677.0        3067683584.0         796079799.0        2105258207.0         955365076.0        2923159030.0        4116632677.0        3067683584.0
Wiener process for Thermostat # 8        1 F T T  -4.5640763099500831E-01         619850919.0        1616656582.0        2230335923.0        1755726613.0        1378131132.0         471359409.0        3281794178.0        2616230133.0        1457051261.0        2762791137.0        2480527362.0        2282316169.0        3281794178.0        2616230133.0        1457051261.0        2762791137.0        2480527362.0        2282316169.0
Wiener process for Thermostat # 9        1 F T T   6.0183106316265989E-01         585178908.0        1683301921.0        3311353564.0         959422897.0        2717939468.0        1917232102.0        3777646647.0        1837464056.0        4204654757.0         664239048.0        4190510072.0        2959195122.0        3777646647.0        1837464056.0        4204654757.0         664239048.0        4190510072.0        2959195122.0
Wiener process for Thermostat # 10       1 F T T   3.5810182224775317E-01        2227513550.0        2565369719.0        2103646144.0         612834911.0        3784164325.0         653825559.0        4215590817.0        3862461878.0        1087200967.0        1544910132.0         936383720.0        1611370123.0        4215590817.0        3862461878.0        1087200967.0        1544910132.0         936383720.0        1611370123.0
Wiener process for Thermostat # 11       1 F T T  -3.0567900614301463E-01        2621311331.0        3304731924.0        3748987153.0         392972320.0        1277730984.0        2430932887.0        1683636369.0         362165168.0         814316280.0         869382050.0         980203903.0        2062101717.0        1683636369.0         362165168.0         814316280.0         869382050.0         980203903.0        2062101717.0
Wiener process for Thermostat # 12       1 F T T  -7.7552672865729821E-01        2692853304.0        3403525483.0         875329758.0        4085556950.0        2985734328.0        3127976155.0         272317999.0         166758548.0         310112982.0         201045826.0        1680231254.0         118290799.0         272317999.0         166758548.0         310112982.0         201045826.0        1680231254.0         118290799.0
Wiener process for Thermostat # 13       1 F T T  -1.3274942628369035E+00         505773575.0        2773260246.0        1056972684.0        2462991814.0        1539756204.0        2364103777.0        2245755202.0        1652682525.0        2865544364.0         721509566.0         209733568.0         592362218.0        2245755202.0        1652682525.0        2865544364.0         721509566.0         209733568.0         592362218.0