 # Version information for this restart file 
 # current date 2022-11-29 19:40:14.753
 # current working dir /scratch/work/courses/CHEM-GA-2671-2022fa/wz2449/main/comp-lab-class/Week12/Runs/Proton
 # Program compiled at                              Sat Dec 12 18:27:15 EST 2020
 # Program compiled on                                         cs001.nyu.cluster
 # Program compiled for                                                nyu-intel
 # Source code revision number                                       git:8c64c6e
 &GLOBAL
   PRINT_LEVEL  LOW
   PROJECT_NAME proton_aimd_1ns_every0.5fs
   RUN_TYPE  MD
   WALLTIME 21600
 &END GLOBAL
 &MOTION
   &GEO_OPT
     OPTIMIZER  BFGS
     MAX_ITER  100
     MAX_DR     3.0000000000000001E-03
     &BFGS
     &END BFGS
   &END GEO_OPT
   &MD
     ENSEMBLE  NVT
     STEPS  2000000
     TIMESTEP     4.9999999999999994E-01
     STEP_START_VAL  1500
     TIME_START_VAL     7.5000000000000762E+02
     ECONS_START_VAL    -1.1027337638886459E+03
     TEMPERATURE     3.0000000000000000E+02
     &THERMOSTAT
       TYPE  GLE
       REGION  MASSIVE
       &GLE
         NDIM  5
         A_SCALE     1.0000000000000000E+00
         A_LIST     1.8595758612559999E+02    2.7263853498399998E-01    1.1526100454610001E+01   -3.6414578262600003E+01 \
             2.3173375816020001E+02
         A_LIST    -2.7809524712060002E-01    8.5951591808710006E-05    7.2189048017650004E-01   -1.9844539343859999E-01 \
             4.2409257583420001E-01
         A_LIST    -1.4825808131210000E+01   -7.2189048017650004E-01    1.3590902121280000E+00    5.1498896280349999E+00 \
            -9.9949268450990001E+00
         A_LIST    -1.0372189126880000E+01    1.9844539343859999E-01   -5.1498896280349999E+00    2.6661910891169999E+01 \
             1.1507715495310000E+01
         A_LIST     2.1801346360420001E+02   -4.2409257583420001E-01    9.9949268450990001E+00   -1.1507715495310000E+01 \
             3.0958394565589998E+02
         &THERMOSTAT_ENERGY
               4.0605359504628895E-03
              -4.2001487043913247E-04
              -1.7861751827470923E-04
               3.7409898995384963E-03
              -1.7212204923874451E-02
              -3.3780751629035235E-03
              -6.1214537967729599E-03
              -2.4190486441817882E-03
               7.1665872019110385E-03
               2.2026607318536475E-03
               4.7987207918892142E-03
              -7.3251725090458693E-03
              -2.3179757949352386E-03
              -5.9475766701602220E-03
               6.1234661063231492E-03
              -1.9479826168995686E-03
               3.0503454544828982E-03
              -5.7340463540272793E-03
               5.8350200904290477E-03
               2.5160660703352654E-03
               1.6246499308764427E-03
               1.1097236371302478E-03
              -6.4735051962511690E-03
               8.8748999967686157E-04
              -4.4099329631280557E-03
              -5.0163600476236881E-03
               5.0556054296311964E-03
               6.6350139590103819E-03
               6.5625582203174878E-03
               1.7113553821243262E-04
              -5.4461398198984790E-03
               5.7699008289996577E-03
               6.1608435995015272E-04
               5.5652935661427922E-03
              -1.2175191140349463E-02
               1.3500342757883555E-02
              -1.9452284552270893E-03
              -1.3391985234142056E-03
               5.6502378456243420E-03
               2.4800718154607410E-03
              -3.6324242828979260E-03
              -5.7955018805685900E-04
               5.7691837912041428E-03
               6.9077892367099903E-03
              -1.0490495330642698E-03
               4.4993690606611111E-03
              -2.7557273554478117E-03
               1.4376363717239745E-03
               4.0920149648919057E-03
               6.2784966685308008E-03
              -9.7715149965286758E-04
               1.1484103664199650E-03
              -1.0085956965726468E-02
              -4.2595349703175361E-03
              -5.5445886155983280E-03
               9.2874637467512972E-05
               1.7653602474516936E-03
              -3.0592734850502235E-03
               4.3048889873719557E-03
               1.0688694264538853E-02
              -9.0967390603334791E-03
              -8.8112893749124760E-03
               1.4435372588201476E-02
              -3.3357251317709161E-03
               1.0859077210596977E-02
               6.3247448345881523E-03
               2.9096062215810399E-03
               1.5060325766465563E-03
               3.2833379465926783E-03
               2.7944743203835980E-02
               2.9561572231144840E-03
               2.0050798864490911E-02
              -3.0279831827131959E-03
              -9.7552614629099451E-04
              -1.7044515383495993E-03
              -9.2537312356854775E-03
               7.8384640519273616E-03
               1.3714725270649541E-03
               7.7440537460271028E-03
              -3.5917512912338940E-03
               5.2315960233514014E-03
              -5.1025537613954425E-03
               4.9561737163548447E-03
              -5.2967306301984296E-04
               5.3557753335900134E-03
               8.5300360588145465E-03
              -5.0411888691107238E-03
               2.4047774951352872E-03
              -2.9548474839639184E-03
               2.3988294372341278E-04
               2.2238366386597170E-03
              -4.9188486572596469E-03
              -5.1537993500841905E-04
              -1.6956968851716612E-03
              -8.7476765519542616E-04
              -8.2570876917612912E-04
               6.3728625688883739E-03
               3.8658406409880471E-03
               6.4766541536792994E-03
               5.7640172929224508E-03
              -1.0936647763000119E-02
               3.8339011082463553E-03
               4.8934654026458588E-04
               6.4342582864904338E-03
              -5.0325397324884847E-03
               3.7944784861288286E-03
               6.9773243322522223E-03
              -4.9083288282293705E-03
               6.0299849884441750E-03
              -1.9053368858928084E-03
               2.6087484089312447E-04
              -4.4697919336870642E-03
               7.3596139552739893E-03
               7.7851952067540826E-03
              -3.8965556718260441E-04
               2.5499929651964714E-03
              -6.2293558222010475E-03
               2.1375452175649433E-03
              -1.6692926921476098E-03
              -2.4484358027748992E-03
               6.0981373688825330E-03
              -6.0807821053934638E-03
               3.4663354112420539E-03
              -7.1127149156250792E-03
               5.3581810214348418E-03
              -3.0511159284889932E-03
               7.0531687211794983E-03
               4.6750405352769938E-03
               6.2767194087125708E-03
              -4.3490966234182625E-03
              -3.7217065058290704E-03
               6.0126202506117004E-03
               2.6734257713392374E-03
              -3.9575542136610553E-03
               1.5964848868369971E-03
               1.8484734584434869E-03
              -2.9024905230921483E-03
              -1.5687268271668707E-03
               1.1127221416690727E-02
              -1.1192221270373894E-02
              -7.8491931787056919E-04
               4.6725048718992855E-03
               6.8222289740123192E-03
              -2.4304552321342604E-03
              -9.0643207452059654E-03
              -2.8523487632280773E-03
               1.4095074858118967E-02
              -4.2357623819018770E-03
              -9.3941770907755449E-04
               6.3161207010827922E-03
              -5.6605425018042416E-03
               1.0450201583148742E-02
              -2.7869110109848541E-03
              -3.0482667349764346E-04
               4.6398308925983400E-03
               4.2612526410755218E-03
               1.8603940680159651E-03
              -3.9346556815062928E-03
               6.8021996590505464E-04
               2.8205421924829450E-03
               2.8141710431262550E-03
              -6.8209798175379657E-03
               8.5741526374054757E-04
               1.0209404227500235E-03
               5.3991652040671989E-03
               1.4702136007661407E-02
               4.6803730559143262E-04
              -1.7176830933940377E-02
               3.8482371677856482E-03
              -5.5118590659681867E-03
               2.3772641116891493E-03
               3.1808635307135993E-03
               7.3288047504028358E-04
               9.0672892965612648E-04
               1.2561690406984131E-03
               2.3663480618661668E-02
               1.5682736458927284E-02
              -2.0158364215141556E-03
              -4.6716318854785380E-05
               6.5366679102111551E-03
               2.4138725429250006E-03
              -5.3605687634559118E-04
               1.3473940718723864E-02
              -4.6397289974587277E-03
               3.4496502196015655E-03
               1.6358862129919540E-03
               8.6065266444105733E-03
               7.8379551219390719E-04
              -9.5853388323145826E-04
               4.5814386862318970E-04
              -5.4302066633927244E-03
               4.4046704632077285E-03
               2.5661647912456013E-03
              -1.0285758982044612E-03
               5.9620637518255594E-03
               5.7114847303822171E-04
              -7.9711009035144734E-03
               2.8120429745404287E-03
               2.4101164448612424E-03
              -4.2010935937449850E-03
               4.2100121303381335E-03
               5.1185595141626985E-04
               1.4222008193327852E-03
               3.1476001809135319E-03
              -4.8753175745117382E-03
              -6.1153319344951938E-03
               2.9042618125793272E-03
               3.2453479233075582E-04
              -6.1135045785884259E-03
               1.5345634938432931E-02
              -6.1563623513757491E-03
              -1.6188276550455976E-03
               3.5191041998325540E-03
               2.3860522249301956E-03
              -4.4946577250035659E-03
               2.8447772943478488E-03
              -1.0610230288834786E-02
               4.8867178198587508E-03
              -1.3037509900672109E-03
               2.8293238617246104E-03
               2.0884840459044541E-03
              -5.8272922078305336E-03
              -9.4431088758093161E-03
              -2.0367208855342324E-03
               5.9045813740758466E-03
              -4.3323755507059308E-03
               1.7965891435155592E-03
               5.9058154524363792E-03
              -2.9456773896458623E-03
               7.3296407080750256E-04
               5.1511809607111174E-03
               2.5381437752647891E-03
               5.8978482415299287E-03
               1.3062047676319925E-03
              -4.8552304269497380E-03
              -2.4328495647704573E-03
              -1.5773983508488420E-02
               6.7766733469069927E-04
              -1.9487759000135633E-03
              -1.2742382728919094E-03
               4.4173190841384979E-04
               2.8559397047820349E-03
               6.5271430447997932E-03
              -5.3809615989153566E-03
              -2.5310125880681736E-03
              -1.0057668773775933E-04
               6.9132535558113627E-04
               9.7075934440292943E-04
              -2.8383202179454135E-03
              -6.1273272670159199E-03
               5.9750723834607498E-03
              -5.3190875440891348E-04
              -5.1843632541398723E-03
              -7.4694937043467777E-03
               6.3409768869845543E-03
              -5.9230212769855210E-03
              -2.9211941089159672E-03
              -3.8042853444005282E-03
              -7.5760890241498759E-03
               8.5525034595202126E-04
               1.4115136712049097E-02
               4.0846309220013794E-03
               6.3603739398523131E-03
               2.3995803570739073E-04
              -2.4835285561923223E-03
              -3.5553254069366526E-03
               6.2977795912605786E-04
              -3.6849579492295465E-03
               4.5569538577959750E-04
               1.0035909213718261E-02
               7.7231325302882254E-03
              -1.3409339165433175E-02
              -4.6283086234863010E-03
               2.6325130066262147E-03
              -1.1809084745414353E-03
              -2.5827703144240036E-03
              -1.9306455006843973E-02
               1.4620969026376628E-02
               3.7752107334553041E-03
               2.2026234911330551E-03
              -7.6536360272534618E-03
              -2.0901794998261468E-03
               3.1563818566019788E-03
               2.4183017890108817E-03
              -1.4385545312366229E-03
              -3.6547208341080341E-03
               4.3845365146670786E-03
              -4.0955778127493561E-03
              -1.8044698348975693E-02
               3.4633008680610838E-03
               1.5876182699628150E-02
               1.1555619313375980E-04
              -5.3334436878858396E-03
              -1.9671043718561994E-03
               6.2876526091493424E-03
               1.1203900481851685E-02
              -1.8010143250739998E-02
               1.3850921446323399E-02
               1.2107793037232448E-02
              -1.3190489435579260E-02
               3.8936192311710850E-03
               2.1099667621377297E-03
               2.5793835943317524E-03
               9.7444397472920101E-03
               1.4553382801750118E-02
              -7.0699790689730240E-03
              -7.9845883738222014E-03
               9.2862019635058298E-03
               2.3560959636483390E-03
               8.6995299243054023E-03
              -3.1960748291601265E-03
              -3.2379224625279030E-03
               5.5083649218721532E-03
               2.6494473962677366E-03
               1.8744179824775583E-03
              -5.6600808210033743E-03
              -4.7043445955864951E-03
               2.0657213399884757E-03
              -1.1463361301297109E-02
              -4.2883306001181877E-03
              -6.2545938619188585E-04
              -2.0116571275844352E-03
               1.5858765014701254E-03
              -9.2642489991609234E-03
              -3.9166537437945979E-03
               1.3054948276878399E-02
               5.9195733590037252E-03
               3.0696264009401697E-03
               3.6118664341386764E-04
               1.2490134321525570E-03
              -5.0531001497541722E-03
               3.0227662410651649E-03
               1.9504706646858924E-03
              -7.2077585492752007E-03
               1.5297923440380646E-03
              -3.9701419606693206E-04
               6.4059951239882177E-04
               1.9552459946559960E-03
               3.6235278891985634E-03
               9.1399915056603748E-04
              -8.6720414126212637E-03
              -2.5642852309042002E-03
               6.7990393773711523E-03
               1.0001845413620091E-03
               8.8541238089658806E-03
               8.8088289361052761E-03
               3.0878257821098736E-03
              -7.7127298485586641E-03
               1.0494448901941122E-02
              -9.2002892679825840E-04
              -6.8621826910838365E-03
               2.1412698766349802E-03
              -1.3519296074044619E-02
               1.8941322600601899E-03
               1.6822242504095206E-03
               3.8647937782592327E-03
               2.3648511977800114E-03
              -9.1884515667725059E-03
               1.2890341775885087E-03
              -2.9007631867490123E-03
              -5.6826384524428057E-03
              -4.6081174993281198E-03
               1.5140316371989015E-02
               4.3824512784751239E-03
              -4.6267232686747189E-03
              -1.0484538241810658E-03
               1.3393956772866991E-02
              -1.0790239246572918E-03
              -1.1123451326304219E-02
              -8.7825401377802197E-03
               3.2403847523605278E-03
               5.4230502025757309E-03
              -9.8835555617459749E-04
              -1.1351792480790890E-03
               6.9517841191739545E-04
               6.1632612474789902E-03
              -1.5706039316320745E-02
              -1.2033264503105471E-02
               4.8574913182238685E-03
               1.3064148449803161E-02
               1.3080124159099739E-03
               2.6284395249936048E-03
              -5.9550712762809861E-03
              -2.8778107272555966E-03
              -2.2311962950909387E-02
               8.9341908313285041E-03
               8.6407664648883650E-03
               1.4275910346455765E-03
               2.8250353148530087E-03
               5.5740313175584120E-03
              -1.3265186126422551E-03
               3.8283229355988661E-03
               1.4811142139968005E-03
              -3.4869375778751777E-03
               5.3194255229306051E-03
              -4.1177852004392378E-03
               2.6806689565690139E-03
              -1.2795272215109809E-03
               1.7535274516532128E-03
               1.0572174210796256E-03
              -4.4924515261257278E-03
               2.6495607770139059E-03
              -6.3569906263032539E-03
              -3.5565307221210388E-03
              -2.9684726548244168E-04
              -5.7225211285882446E-03
               2.1875273734565126E-03
               6.0947860167262253E-04
              -2.2762112384708548E-03
               1.9021670867031336E-03
              -2.8427705103436368E-03
              -6.9819486730372683E-03
               7.5822488295916486E-03
              -9.8926755622380375E-03
               8.3741179101695586E-04
               5.7833412496843149E-03
               2.7907778653560350E-03
               3.7525344940039923E-03
              -2.1206137787510041E-03
              -1.8375902136846536E-03
               3.0665850940036089E-04
               8.1132094243165625E-03
              -4.3733043966403417E-04
              -1.3104113421786232E-03
               6.2721607191385401E-03
               3.8348084397292492E-04
               1.9967218896531501E-03
              -3.8201938867812161E-03
              -4.9713626745862590E-04
              -3.6467326543888194E-03
               2.6950957797642308E-03
              -1.0109296430688921E-02
              -4.7246263154120957E-03
              -2.2324408050591188E-03
               1.5684133046785287E-02
               3.0423726515208692E-03
              -6.0300809331847501E-03
              -1.0722439428328392E-03
              -4.8724382317624770E-03
              -7.8547347952949154E-03
               1.3754111749927599E-02
              -5.6781800763187567E-05
              -1.1046235296327475E-03
               5.3019204651100597E-03
               9.9219283217954471E-04
               7.4883931004874043E-03
               9.0329215296302435E-03
               1.5086271422973757E-02
               1.8489935731136435E-03
              -1.4447639206304659E-02
              -3.4356799080283900E-03
              -2.9741505609565586E-03
               5.0509400081809744E-03
              -1.8722974576344835E-03
              -1.7624758083608367E-03
              -6.4488879267009603E-03
              -4.5175172241913811E-03
              -1.8340693210058656E-02
               3.4280546321395714E-03
               6.8185861573718393E-03
               1.7924954639160530E-02
               1.0495448002961524E-04
              -8.2624662924572756E-04
               6.4723651845127687E-03
               9.9725645824822982E-03
              -3.0998569455569659E-03
              -1.1389213600232151E-02
              -3.0653089744074160E-03
               1.1751681815280940E-02
              -1.2481029096243941E-02
               4.8207828732316801E-06
               8.2777468809224614E-04
               2.9274073954592872E-03
              -4.2544431686081172E-03
              -3.1343623581381367E-03
               5.2744945437852271E-03
               2.7581433138738507E-04
               4.1115128917282046E-03
               1.2102284466168659E-02
              -5.7757044773882171E-03
               2.9330291987985106E-06
              -8.3518762659494806E-03
               1.5265099380101837E-03
               1.4029222531132068E-03
               5.0711738263264907E-03
              -8.0316215012982139E-04
               1.1883002855989995E-03
               6.4873683786323118E-04
               7.1047531851116492E-03
              -2.4963642865315147E-03
               8.0686479346019704E-03
               3.9029322339560204E-03
               1.2390911919557090E-03
               2.4044837009274426E-03
              -6.4224745848361683E-03
               1.1659588693428461E-03
              -4.4205142030784026E-05
               2.7233229991981541E-03
               2.2604464295045844E-03
               7.3437988402399448E-03
              -1.3182929014902756E-03
               9.2555956437325240E-03
              -1.4912139633264251E-02
               1.3354129886042424E-02
               4.4819054489791087E-03
              -1.0154573487369209E-02
              -1.0073455104699449E-02
               1.1623810470809409E-04
               7.9451738817165572E-03
               1.7800359163874344E-03
              -7.0637658807341632E-03
               7.1739649811997565E-03
              -8.2516957262872732E-03
              -2.4261966205607172E-03
               1.4250998574879001E-02
              -2.0519543671763056E-02
              -3.2249855906849919E-03
               8.8455349525544610E-03
               1.0133760300950335E-03
               6.9975561059365077E-04
              -6.1026532866482082E-03
               4.1105871582760683E-04
               4.7949801391773336E-03
              -3.9890560212953890E-04
              -2.1207850096319871E-03
               3.3140482636917074E-03
              -3.9640927577110994E-03
              -3.2316887472784079E-03
               5.4325124535726393E-04
              -2.1337766842320881E-03
               7.9733921997915472E-03
               5.2588866508639556E-03
              -5.0452379489057996E-03
              -9.4914496353915214E-03
              -7.4219622634939526E-04
              -3.9208614182482113E-04
               1.1039222715208039E-03
              -2.6274122352545454E-03
               3.7121227648263914E-03
               1.5291170275764454E-03
               4.2549892943709007E-03
              -1.8161881057729525E-03
              -7.8041189047212906E-03
              -4.6072012733551710E-05
               4.9512191076463595E-03
              -7.0140072283460416E-04
               6.1357841238968121E-03
               1.2732645905620878E-03
               1.0213187774648414E-03
               1.0236974696612425E-02
              -8.6580738048922020E-03
              -4.6767136844216833E-03
              -5.8097121714299933E-04
              -4.8405221961625123E-03
              -4.0556078204705067E-04
              -1.8778638096524475E-03
               1.9874998101342858E-03
              -5.3252475034040883E-03
               1.1632920201517776E-02
              -1.3519651402902958E-03
               8.7803659083576704E-04
               4.6413183652843975E-03
               5.9107658785708284E-04
               1.0235084765910804E-03
              -5.0511752444268171E-03
              -8.0173190585311836E-03
              -2.8715512191844475E-03
               6.1505025746357988E-04
               1.2014679446238582E-03
               1.9576603458344331E-03
               3.2995720893900767E-04
              -1.6765541145315030E-03
              -2.8227456104227078E-03
              -1.0543630905969619E-02
               4.2405518594918140E-03
               3.9045396645096355E-05
               9.3426362866426641E-03
               6.7816994760109125E-03
              -6.6368001075563397E-03
         &END THERMOSTAT_ENERGY
         &RNG_INIT
Wiener process for Thermostat # 1        1 F T T   1.0570193072987602E-01        2554248455.0        3733268398.0        2096963647.0         915983833.0        1292997779.0         989563289.0             12345.0             12345.0             12345.0             12345.0             12345.0             12345.0             12345.0             12345.0             12345.0             12345.0             12345.0             12345.0
Wiener process for Thermostat # 2        1 F T T  -5.0729818522276993E-01         187792199.0        1332764939.0        1272087322.0         282682701.0         988697858.0        4086000388.0        3692455944.0        1366884236.0        2968912127.0         335948734.0        4161675175.0         475798818.0        3692455944.0        1366884236.0        2968912127.0         335948734.0        4161675175.0         475798818.0
Wiener process for Thermostat # 3        1 F T T   8.9774137220556466E-02        3755061031.0        1753083868.0        1351179932.0         343881147.0        3312142877.0        1244557929.0        1015873554.0        1310354410.0        2249465273.0         994084013.0        2912484720.0        3876682925.0        1015873554.0        1310354410.0        2249465273.0         994084013.0        2912484720.0        3876682925.0
Wiener process for Thermostat # 4        1 F T T   2.1447125495896904E-01        2430503636.0         902227617.0        3039217662.0         205693714.0        2375800914.0        4220709598.0        2338701263.0        1119171942.0        2570676563.0         317077452.0        3194180850.0         618832124.0        2338701263.0        1119171942.0        2570676563.0         317077452.0        3194180850.0         618832124.0
Wiener process for Thermostat # 5        1 F T T  -7.4974817695318574E-01        3949927612.0        4293465109.0         224208328.0         677588237.0        2173092809.0        2514687022.0        1597262096.0        3906379055.0        3312112953.0        1016013135.0        4099474108.0         275305423.0        1597262096.0        3906379055.0        3312112953.0        1016013135.0        4099474108.0         275305423.0
Wiener process for Thermostat # 6        1 F T T  -2.3195632299180402E+00        4147399821.0         968438491.0         174961265.0         382156541.0        3672303660.0        2385050302.0          97147054.0        3131372450.0         829345164.0        3691032523.0        3006063034.0        4259826321.0          97147054.0        3131372450.0         829345164.0        3691032523.0        3006063034.0        4259826321.0
Wiener process for Thermostat # 7        1 F T T  -8.3038096976097500E-03        3725962017.0        3124905816.0        1692649901.0        3685368087.0         990134651.0        3321809881.0         796079799.0        2105258207.0         955365076.0        2923159030.0        4116632677.0        3067683584.0         796079799.0        2105258207.0         955365076.0        2923159030.0        4116632677.0        3067683584.0
Wiener process for Thermostat # 8        1 F T T   7.2955713326517235E-01        1426374835.0        1022225665.0        3431852557.0        2945126969.0        1347790872.0        2047858768.0        3281794178.0        2616230133.0        1457051261.0        2762791137.0        2480527362.0        2282316169.0        3281794178.0        2616230133.0        1457051261.0        2762791137.0        2480527362.0        2282316169.0
Wiener process for Thermostat # 9        1 F T T  -8.3876742673612970E-01        3633457436.0         863053678.0         665967915.0         928783000.0        4027924725.0        3556250224.0        3777646647.0        1837464056.0        4204654757.0         664239048.0        4190510072.0        2959195122.0        3777646647.0        1837464056.0        4204654757.0         664239048.0        4190510072.0        2959195122.0
Wiener process for Thermostat # 10       1 F T T  -6.7138423863751628E-01        3282585865.0         909372753.0         488063086.0        2442536289.0         174422437.0         477575080.0        4215590817.0        3862461878.0        1087200967.0        1544910132.0         936383720.0        1611370123.0        4215590817.0        3862461878.0        1087200967.0        1544910132.0         936383720.0        1611370123.0
Wiener process for Thermostat # 11       1 F T T  -7.2169956836733329E-02        3039538231.0          25912629.0        1608189467.0        1823124278.0        2331127605.0        2449500504.0        1683636369.0         362165168.0         814316280.0         869382050.0         980203903.0        2062101717.0        1683636369.0         362165168.0         814316280.0         869382050.0         980203903.0        2062101717.0
Wiener process for Thermostat # 12       1 F T T  -6.7722400494670465E-01        2762226669.0        4262778377.0        2250707948.0        3120407528.0        3704866228.0        1185520965.0         272317999.0         166758548.0         310112982.0         201045826.0        1680231254.0         118290799.0         272317999.0         166758548.0         310112982.0         201045826.0        1680231254.0         118290799.0
Wiener process for Thermostat # 13       1 F T T  -7.3817531449270457E-01        3689403510.0         367299738.0        3636386471.0        1925893934.0        3355800516.0        3520562622.0        2245755202.0        1652682525.0        2865544364.0         721509566.0         209733568.0         592362218.0        2245755202.0        1652682525.0        2865544364.0         721509566.0         209733568.0         592362218.0