 # Version information for this restart file 
 # current date 2022-11-29 17:06:28.521
 # current working dir /scratch/work/courses/CHEM-GA-2671-2022fa/wz2449/main/comp-lab-class/Week12/Runs/Proton
 # Program compiled at                              Sat Dec 12 18:27:15 EST 2020
 # Program compiled on                                         cs001.nyu.cluster
 # Program compiled for                                                nyu-intel
 # Source code revision number                                       git:8c64c6e
 &GLOBAL
   PRINT_LEVEL  LOW
   PROJECT_NAME proton_aimd_1ns_every0.5fs
   RUN_TYPE  MD
   WALLTIME 21600
 &END GLOBAL
 &MOTION
   &GEO_OPT
     OPTIMIZER  BFGS
     MAX_ITER  100
     MAX_DR     3.0000000000000001E-03
     &BFGS
     &END BFGS
   &END GEO_OPT
   &MD
     ENSEMBLE  NVT
     STEPS  2000000
     TIMESTEP     4.9999999999999994E-01
     STEP_START_VAL  500
     TIME_START_VAL     2.4999999999999795E+02
     ECONS_START_VAL    -1.1027337638886459E+03
     TEMPERATURE     3.0000000000000000E+02
     &THERMOSTAT
       TYPE  GLE
       REGION  MASSIVE
       &GLE
         NDIM  5
         A_SCALE     1.0000000000000000E+00
         A_LIST     1.8595758612559999E+02    2.7263853498399998E-01    1.1526100454610001E+01   -3.6414578262600003E+01 \
             2.3173375816020001E+02
         A_LIST    -2.7809524712060002E-01    8.5951591808710006E-05    7.2189048017650004E-01   -1.9844539343859999E-01 \
             4.2409257583420001E-01
         A_LIST    -1.4825808131210000E+01   -7.2189048017650004E-01    1.3590902121280000E+00    5.1498896280349999E+00 \
            -9.9949268450990001E+00
         A_LIST    -1.0372189126880000E+01    1.9844539343859999E-01   -5.1498896280349999E+00    2.6661910891169999E+01 \
             1.1507715495310000E+01
         A_LIST     2.1801346360420001E+02   -4.2409257583420001E-01    9.9949268450990001E+00   -1.1507715495310000E+01 \
             3.0958394565589998E+02
         &THERMOSTAT_ENERGY
              -1.6364191330442382E-03
               6.7904566633394860E-05
               3.5994626499712850E-04
               1.4786187736872056E-03
              -5.5611924260670336E-03
              -1.0370785421600949E-03
              -3.4280333199312686E-03
              -3.5573992951145922E-03
               7.3085101213696841E-03
               2.6460110707680119E-03
               6.2785615852196490E-03
              -3.4740222629121857E-03
               2.9486487830335281E-03
              -4.0662614166637871E-04
              -1.8277776557453097E-03
              -2.7467555221392156E-03
               1.5021805955246527E-03
              -4.3598318358527731E-03
               5.0566308797619685E-03
              -7.2264837461730104E-04
               2.8339902424524667E-03
              -3.1742544992506868E-03
               9.0135690634315989E-05
               1.7000616264189535E-03
              -3.7339289631945988E-03
              -8.3148940122694461E-04
              -2.6297451173700284E-03
               5.4016029281361566E-03
               2.7277567865932641E-03
               1.1506766028455062E-03
              -3.4947451403277113E-03
               6.5562924033173240E-03
              -1.5752945572404723E-04
               1.5275595111565793E-03
              -4.1133269580538147E-03
               6.3612769115990991E-03
              -1.8204764776195094E-03
              -4.0249730074397235E-04
               1.9754346829279710E-03
              -5.0032629910125763E-03
               3.9315155008699887E-03
               1.4210625741600450E-05
               3.4826390428669054E-03
               4.4243418744162547E-03
              -8.6384204171483809E-03
               5.3690750590210216E-03
              -2.1834466512023467E-03
               9.9959783166985762E-04
              -5.1310013207876886E-03
               8.7674275272190110E-04
              -1.8006519522489818E-04
              -3.6821265443506218E-03
              -1.3432901618454771E-05
               1.6871365750871082E-03
              -3.8443161454751983E-03
               3.4678900349161905E-03
               1.6100857007622438E-03
              -6.2074794570735894E-04
               1.6697336294026718E-03
               4.1706850654428087E-03
              -1.2290344210875532E-03
               3.1102065596581727E-04
               3.8308145964677017E-03
              -2.1046700680924261E-03
               1.2447755483373584E-02
               1.0972702607885327E-03
               2.7706590600812685E-03
               6.7708251512685787E-03
               4.1855993477856821E-03
               2.4391400754643997E-02
               4.1787255369733402E-03
               1.6917543353519290E-02
              -2.3014424044844089E-04
               2.1028420168014354E-03
              -3.1644932862790968E-03
              -5.6703917694201963E-03
               4.1685130877107688E-03
               1.6929116242411337E-03
               6.4335770441318052E-03
               1.7194565860778957E-04
              -5.2499745442279536E-03
              -2.2002834344858808E-03
               2.0740998991298624E-03
              -1.9451121656160089E-03
               3.5274590521455840E-03
               1.5788426165637506E-03
              -5.5872233265411644E-03
               3.3576425731590004E-03
               1.0013842652415207E-03
              -4.8494245805717432E-03
               5.0390633121829599E-03
              -5.0583185484307808E-03
              -5.5360630370538419E-04
               3.3056007513768576E-03
              -5.6428521789237511E-03
               3.1244602511257794E-03
               5.3505068775187223E-03
               3.7511791579405446E-03
               2.7745267493679100E-03
               4.1924218120687933E-03
              -8.9670764399175430E-04
              -5.6537515521311448E-05
              -2.5135792485207567E-03
               1.2346566647012873E-03
               1.6841611814709070E-04
               9.2028375654768999E-04
              -3.6663376746627542E-04
              -1.5487654173119564E-03
               5.9295888846616273E-03
              -2.3891610715735950E-03
               2.8794341635237871E-03
               1.7249789755287963E-03
               2.8195247589775730E-03
               4.8962599148076288E-04
               2.4397157035717979E-03
               3.2173297060983665E-03
              -7.6971076513253052E-03
               3.8350210797575340E-03
              -5.3307218739976105E-03
              -3.0914733630374855E-03
              -1.5011639920189078E-03
               3.2405181855270785E-03
              -3.0572321542940498E-03
               4.0403204968113499E-03
              -1.7986409243607756E-03
              -3.5919367832194419E-04
               1.5375567715476123E-03
               1.7825743532419484E-03
               4.2254631582713956E-03
               1.9228206728660127E-03
               7.5071423530552602E-04
               3.5411937930432333E-03
               1.1753614383944334E-03
               5.8310089990605465E-04
              -2.1232355314617656E-04
               1.5443091508236338E-03
              -4.0459694605681183E-03
               1.5025310390487656E-03
               8.6004955854491517E-05
              -5.7113956824406285E-03
               5.9966567605278095E-03
               4.4974764502032595E-03
               2.7582277236384441E-03
               3.1595798972303428E-04
              -2.9786207511532706E-03
              -2.2704318927037649E-03
               3.7645638309298235E-03
              -3.4470209211056851E-03
              -2.8104366473352938E-03
               6.6810355870659264E-03
              -3.8836899392404300E-04
              -2.4959976327113356E-04
               2.0060007980733309E-03
               4.8662495679283589E-04
               1.0993101204456611E-03
              -3.2278529728895010E-03
               9.6550693656674634E-04
              -2.0957569695572022E-03
              -2.4498188491507192E-03
               4.2516169384698597E-03
              -4.8187709316274722E-03
              -3.7013841273269275E-05
              -5.8087866903083589E-04
              -1.6446323471507374E-03
               2.8920924768334505E-03
               7.5646425558084599E-03
               1.1948103638536813E-03
              -6.5145429258934131E-03
              -3.4272229442380226E-03
               3.3203639565742801E-03
               5.7158442455851506E-04
               3.1881836233977490E-03
               4.1207945335255903E-04
              -6.2663144322331775E-05
               1.0679534513315901E-02
               1.9800083460256947E-02
               1.4266652000559788E-02
              -4.3850914653304797E-03
               3.2029043232935893E-03
              -2.4837338179103550E-03
              -4.5089681869133393E-03
               1.4408914904220087E-03
               7.3325369242647825E-03
              -4.4314208269956492E-03
               3.8895528304625177E-04
              -4.1454372806902983E-04
               4.7918249427833723E-03
              -4.1640707361102862E-03
              -2.1677268683947650E-03
              -2.0300828952649996E-03
              -4.4384159846412390E-04
               1.8996523489751191E-03
              -2.1361125119395839E-03
              -4.6556848393234634E-03
               1.0091697805580263E-03
               1.5229098132959317E-03
              -3.6744264035646632E-03
               7.7042430039585795E-04
              -2.5607179699995076E-04
               4.3915410910236076E-03
               2.1007889448183908E-03
               2.9138818236487327E-03
               1.8143739201676012E-03
               1.9663242911955947E-03
              -6.5391566192274991E-03
              -4.4581654976129726E-03
               8.5707904487917813E-04
              -9.1669630398968417E-04
              -5.4980181365489244E-03
               6.8920143281589697E-03
              -2.1747015151651812E-03
               3.2186620939501009E-04
               9.3765254177906477E-03
              -3.9882933224387885E-04
              -8.2770119807443667E-03
               6.4023159415439387E-03
              -2.4483852863484081E-03
               1.4599249995298602E-03
              -3.6272502667092183E-03
               1.5827745829382835E-03
              -1.1260032744526839E-03
               4.4942247426786163E-05
              -1.1520180221446864E-03
              -2.5408924041003095E-04
              -2.4045162327032158E-03
              -2.0413033457313505E-04
               1.6895070177248015E-03
              -4.5392262705268158E-04
              -6.7490283026361546E-04
              -7.0267106146281258E-04
              -3.0039304798761520E-03
               4.1150483909337199E-03
               6.9687087420542545E-03
              -1.7512011638677113E-03
               2.0479213500201755E-03
              -7.6760662859527864E-05
              -4.8828332875753139E-03
              -3.4766025572500537E-04
               3.7832928176787753E-04
               5.1996753774840123E-04
              -9.0922113396438753E-04
              -1.8103648820050339E-04
               2.9392959109337514E-03
              -1.3311642575402727E-03
              -3.4742232514991863E-03
               3.2495704432123241E-04
               4.9496466412307129E-04
              -2.6845861618543369E-03
              -4.6186527137524627E-04
              -3.7652949717327145E-03
              -1.3516542073343019E-03
               1.4082282476656123E-03
              -3.5084015647852866E-03
              -3.0750094073702858E-04
               6.6434747942520651E-03
              -3.2104983808311878E-03
              -1.5176856446867427E-03
              -1.2965230305044608E-04
               1.5568775936762428E-04
              -2.0294466194284958E-03
               2.9622034030825691E-03
               4.1676893936724736E-03
               3.1371519692458055E-03
              -3.6579541118248945E-04
              -1.1538804684795762E-03
               6.0909844287986470E-04
              -4.0455126753058488E-03
               7.8889646644744076E-04
              -2.3976383600489751E-03
               3.8825760412094339E-03
              -2.2984283924961835E-03
              -9.5033007825454912E-03
              -3.2319115102266084E-03
               2.4419118466693203E-03
              -2.6850829103478831E-03
              -9.4949820339362465E-04
              -1.0212356124126227E-03
               4.4502629320114714E-03
              -1.6234985287921549E-04
              -3.1378491239406503E-04
              -2.5965590577644573E-03
              -6.2715733796165829E-03
               3.3236043395290168E-04
               1.4303373104997648E-03
               1.1330833567824710E-03
              -3.6808606880175143E-03
               5.4961304789881817E-03
              -2.2787458259670140E-03
              -4.8203303320362781E-03
               3.2476591837644177E-03
               1.9138549352301349E-03
               3.3421830435568606E-04
               1.5973471683973096E-03
               3.1943466163478220E-03
              -1.0360760856983917E-03
               6.7815536438376352E-03
              -6.6233097415992594E-03
               3.5732587458059050E-03
              -6.3632992538324685E-04
              -1.7380096302557968E-03
               4.2364894711361834E-03
               2.4752590113213367E-03
               2.6193312220463682E-03
              -1.7721933451018237E-03
               1.1032162067015757E-02
              -5.9289865958453371E-04
              -4.9617358906559083E-04
               6.7295777768579292E-03
              -4.2963315444052332E-03
               4.8677549884712902E-04
              -1.1046994261059498E-03
              -3.9902466560462107E-03
               2.4283429017983899E-03
               2.1470008830784511E-03
               3.7376335392877739E-04
              -2.9630115606420503E-03
              -2.1610256261449003E-03
               3.4722998497672590E-03
              -1.2847916872618971E-03
               2.8486603986670918E-03
               1.6928030916798758E-03
              -8.9640833338832120E-04
              -4.1102729480922756E-03
              -6.6779349149990808E-03
               1.7935860819740272E-03
               3.2918925606531067E-03
               2.6963155014902130E-03
               1.2989023946550977E-03
               1.3362750613234091E-03
              -2.3806129882617028E-03
              -1.6366169482335219E-03
              -8.1323816619517349E-04
               2.1508814159381159E-03
               3.1218145827626061E-03
              -2.1514829770811770E-03
               7.5299299382493442E-04
               1.4060340235734108E-03
               8.0904578233673250E-04
               4.3452040366210474E-03
               4.1066414888628958E-03
              -3.1063879354636416E-04
               9.7261149092860307E-04
               2.0322396147026017E-03
               2.4088775702144345E-03
              -5.2859338905497622E-04
               1.5684076708687754E-03
               7.2781868012114222E-04
              -3.3964526496000393E-04
               3.1786561202262623E-03
              -4.7651599005889469E-03
              -3.2104050191778455E-04
               8.2708868154468258E-04
               1.7546266967731334E-04
               4.6210920889023926E-03
              -1.5288555495461720E-03
               2.7593110649429186E-03
              -1.0142539779828721E-03
              -2.9476378749965040E-03
               2.2620494829836634E-03
              -3.0808930496617758E-04
               1.9976569632859549E-03
              -5.7832375522268824E-03
               1.2740322398052374E-02
               3.6228528471590961E-03
              -9.5291231246036226E-04
               2.1081625161991201E-03
               9.9236763588362673E-03
               2.2277218365910692E-03
              -1.2584354334519411E-02
               6.2275871527246848E-04
              -3.2251081230458508E-03
              -2.8748134650180180E-03
               1.3681784490051055E-03
              -1.7204086555033058E-03
              -1.5384976641840374E-03
               4.3044022108140959E-03
              -3.4018769934696944E-03
              -4.8594655182602996E-03
              -1.7523904368627963E-04
               3.6875935902436307E-03
               9.3251656006140948E-05
               1.0109769297741052E-03
              -1.2312818318826896E-03
              -1.7093680429209755E-03
              -5.0603458261028380E-03
               1.9178363506519797E-04
               3.7121333155487866E-03
              -1.0357034618076269E-03
               4.3952496926880141E-03
               8.0529764406109510E-04
               1.0366577731357092E-03
               9.7576898125739978E-04
              -2.0753769921556201E-04
              -4.9130208164985039E-03
              -7.5580050007813189E-05
               4.3450720456716064E-03
               6.6429205770064843E-03
               9.0848293599307662E-04
              -7.2036581559088123E-04
              -1.6343518670534282E-03
              -2.7314511763379635E-03
               1.6523321794142596E-03
               7.7713148956978888E-03
               9.0765853044245135E-05
              -3.0175098988870996E-03
              -2.0098126077413127E-03
               8.4115924423976119E-04
              -7.2193299376723287E-03
              -3.0043327181450102E-03
               1.0350516581050394E-03
               1.4926293514853888E-03
              -2.7761646878736472E-03
               4.1911226557527952E-03
              -4.2197583001680888E-03
              -1.0732513248891771E-03
               2.3481365609713473E-03
              -2.6155066133679351E-03
              -1.8122005116056293E-04
              -1.5115379051327074E-03
               5.4546200300334908E-05
              -3.7435043198374453E-04
               1.4205757748192425E-03
              -4.9371368732490659E-03
              -1.2521161039729563E-03
               3.5636174744218814E-04
               4.1765641474011119E-03
               8.8137431852295615E-04
              -4.7223208844675213E-03
               4.7871018393529232E-04
               6.7476511139422483E-03
              -1.6289217807711027E-03
              -2.4913935645924754E-03
              -2.6367765720819109E-03
              -5.8992062078785032E-03
               4.6940915370015336E-03
               3.1153071738511764E-03
               7.5023742167865896E-04
              -1.7981086650817920E-03
              -1.2043094142845877E-03
               1.9693233274386351E-03
               4.4114671269257916E-03
              -4.6385173988665052E-04
               2.6313605340276227E-05
               1.0596422290738553E-03
               2.2409845143423965E-03
               7.1745662678417161E-03
               4.1722035422340053E-03
              -7.6947131925753304E-04
              -5.7336579094100339E-04
              -1.2788051114613432E-03
              -3.2272707106949304E-03
              -7.9925738633173614E-03
               4.7709931303480382E-03
               8.8563793416313204E-04
              -8.9138913985913895E-04
              -2.5957632436739973E-03
               2.4127004442658631E-03
              -2.5624133910420828E-03
               1.7544019698984773E-03
               2.6701640360990491E-03
               2.2118810752698123E-04
               2.2454965692376800E-03
              -3.5233986717354933E-03
               2.5188824637157599E-03
               5.9105360386688052E-03
               2.5973134466842360E-03
              -5.3836803347807613E-03
               9.0167112167873777E-04
               3.2710380265479106E-03
              -2.2789731133186289E-03
              -1.6629012572774041E-03
               1.2594104194502381E-03
               3.9314004277359281E-03
              -1.2475110131308135E-03
              -9.2867077620061424E-04
               4.0575038502343608E-03
              -7.4907155520990813E-05
               5.4917170787927049E-04
              -4.2311954402563775E-03
               3.4006366733226171E-03
              -1.0072962738528701E-04
              -1.5465025707513000E-04
               1.3965935680929781E-03
               1.9738371348451528E-03
               9.2704414268522466E-04
               6.1613879886918002E-04
              -3.0518200071964980E-03
              -4.7765560227740287E-03
               5.0031370093483549E-03
               1.7858469450741558E-04
              -2.0297931673681972E-03
               2.1619298516164240E-03
              -9.7065811635129438E-04
              -4.0881468161965261E-03
               1.7218001766473854E-03
              -5.6951655162338043E-03
               6.1192460974351520E-03
               4.8827346119531536E-03
               4.7448590542585045E-03
               2.3057931748398722E-03
              -1.0446422027311721E-03
              -1.9411983464142444E-03
              -1.0068942197848691E-02
               9.1971767211527049E-03
              -9.9038096393148857E-04
              -6.2099419219997475E-03
              -4.1392909752816865E-04
              -1.6383680264166628E-03
               2.1966696529740577E-03
               1.4152774078781136E-03
               2.7427985113915457E-03
              -4.1331569909416026E-04
              -2.4872542019712127E-03
              -4.7569789612492246E-03
               2.9681470698041845E-03
               2.2274748535804144E-03
              -4.5402370555096393E-03
               3.8889092219952567E-03
               5.3225819495572131E-03
              -3.3518876722165168E-03
              -2.0838519882302340E-04
               8.6319067095625237E-05
               3.3211275446460645E-03
              -1.9243700277977761E-03
              -3.1322127492030500E-03
               1.6606947389286295E-03
              -1.8471797839363917E-03
               7.7204967975281233E-04
               6.9468871185137332E-03
               4.1593412312921803E-03
              -3.2903356710309232E-03
              -2.4700018817520168E-03
               1.6436521536222120E-03
              -7.5930992955871215E-03
               2.0985650295832544E-03
               1.3679546878739778E-04
              -3.6886497466322534E-04
               1.2346758959972113E-03
               2.2470743894188253E-03
               1.2168607440240413E-04
               1.3632562442306314E-03
              -3.4747847594149121E-04
              -3.8962949002202571E-03
               5.2159574139338312E-04
               2.7853568514650839E-03
              -3.7724929687627613E-04
               1.2665463538174221E-03
               4.1640652035308794E-03
              -6.3026154302711006E-05
               2.2106246113798396E-03
              -7.4880049807580073E-03
               2.2426597718090933E-03
              -5.9844426924933328E-04
              -5.8331429289564354E-04
              -1.3615484670909113E-03
              -7.6267574830160851E-03
               2.9576261244773438E-04
              -4.6640334935819081E-04
               7.9362557922122070E-03
               1.7000330223710407E-03
               4.4452592451976738E-03
              -6.9939353409843744E-05
              -1.8506974477251921E-03
               1.4118952660052088E-03
              -5.9328162614605750E-04
               5.4117627021608126E-03
              -7.6465551262190111E-03
              -3.3780828768378486E-03
               5.7312205425567838E-03
              -6.1366740716536881E-03
               1.3284266726391444E-03
              -2.7184575705681878E-03
              -2.8956854047247202E-03
              -4.4077566503633141E-03
               3.3699053026108304E-03
              -2.7144690741112035E-03
               1.3490957269648035E-03
               1.2650548913833701E-02
              -3.2394214507838479E-03
         &END THERMOSTAT_ENERGY
         &RNG_INIT
Wiener process for Thermostat # 1        1 F T T  -1.5505429657892764E+00         661802595.0        2026459976.0        3136775027.0        3268219721.0        1056216878.0        3744216088.0             12345.0             12345.0             12345.0             12345.0             12345.0             12345.0             12345.0             12345.0             12345.0             12345.0             12345.0             12345.0
Wiener process for Thermostat # 2        1 F T T   1.5766939834860993E-01        2521559082.0        1979391111.0        3972826820.0        2839528192.0        3960449033.0        3051881342.0        3692455944.0        1366884236.0        2968912127.0         335948734.0        4161675175.0         475798818.0        3692455944.0        1366884236.0        2968912127.0         335948734.0        4161675175.0         475798818.0
Wiener process for Thermostat # 3        1 F T T  -1.6802103653762466E+00        2464096834.0        3454226368.0         668358963.0        3607867155.0        2139338144.0        1695442074.0        1015873554.0        1310354410.0        2249465273.0         994084013.0        2912484720.0        3876682925.0        1015873554.0        1310354410.0        2249465273.0         994084013.0        2912484720.0        3876682925.0
Wiener process for Thermostat # 4        1 F T T  -9.2120442907176847E-01        3007810664.0         626544053.0           5688727.0        2019501767.0        4050809287.0        2188826537.0        2338701263.0        1119171942.0        2570676563.0         317077452.0        3194180850.0         618832124.0        2338701263.0        1119171942.0        2570676563.0         317077452.0        3194180850.0         618832124.0
Wiener process for Thermostat # 5        1 F T T   1.9586792436148486E+00        3119398129.0        2238966874.0        1731687009.0        1729823850.0        3912388439.0         182524877.0        1597262096.0        3906379055.0        3312112953.0        1016013135.0        4099474108.0         275305423.0        1597262096.0        3906379055.0        3312112953.0        1016013135.0        4099474108.0         275305423.0
Wiener process for Thermostat # 6        1 F T T  -2.2012851380256623E-01         527820745.0        2447393615.0         338698828.0         653439858.0         976211817.0        3944196308.0          97147054.0        3131372450.0         829345164.0        3691032523.0        3006063034.0        4259826321.0          97147054.0        3131372450.0         829345164.0        3691032523.0        3006063034.0        4259826321.0
Wiener process for Thermostat # 7        1 F T T  -1.2191095662093037E-02         167278661.0        2992638024.0        1197931920.0         124710794.0         889033703.0        2194094787.0         796079799.0        2105258207.0         955365076.0        2923159030.0        4116632677.0        3067683584.0         796079799.0        2105258207.0         955365076.0        2923159030.0        4116632677.0        3067683584.0
Wiener process for Thermostat # 8        1 F T T  -2.6373530393371375E-01        2923147749.0        3809475671.0         892364519.0        3114385888.0        3523415917.0        3402922821.0        3281794178.0        2616230133.0        1457051261.0        2762791137.0        2480527362.0        2282316169.0        3281794178.0        2616230133.0        1457051261.0        2762791137.0        2480527362.0        2282316169.0
Wiener process for Thermostat # 9        1 F T T  -1.2388913960989989E+00         276694386.0        3384434371.0        2194062143.0        3864498526.0        2498625561.0        4174179731.0        3777646647.0        1837464056.0        4204654757.0         664239048.0        4190510072.0        2959195122.0        3777646647.0        1837464056.0        4204654757.0         664239048.0        4190510072.0        2959195122.0
Wiener process for Thermostat # 10       1 F T T  -6.9271884074884071E-01         298842605.0        4183294382.0        3769908432.0        1623977651.0        3452521187.0         349927101.0        4215590817.0        3862461878.0        1087200967.0        1544910132.0         936383720.0        1611370123.0        4215590817.0        3862461878.0        1087200967.0        1544910132.0         936383720.0        1611370123.0
Wiener process for Thermostat # 11       1 F T T  -3.9199517781213300E-01        1183014876.0        2469777470.0        2706060047.0        1374668043.0         490283634.0         131761905.0        1683636369.0         362165168.0         814316280.0         869382050.0         980203903.0        2062101717.0        1683636369.0         362165168.0         814316280.0         869382050.0         980203903.0        2062101717.0
Wiener process for Thermostat # 12       1 F T T   1.2248374085476998E+00         744312290.0        1838623065.0        1895433531.0        2930723882.0        3034111406.0        1223209339.0         272317999.0         166758548.0         310112982.0         201045826.0        1680231254.0         118290799.0         272317999.0         166758548.0         310112982.0         201045826.0        1680231254.0         118290799.0
Wiener process for Thermostat # 13       1 F T T   1.6053528300026945E-02         341235087.0         365462780.0         607175623.0        3292057964.0        1611524565.0         256574977.0        2245755202.0        1652682525.0        2865544364.0         721509566.0         209733568.0         592362218.0        2245755202.0        1652682525.0        2865544364.0         721509566.0         209733568.0         592362218.0