 # Version information for this restart file 
 # current date 2022-11-29 21:16:36.704
 # current working dir /scratch/work/courses/CHEM-GA-2671-2022fa/wz2449/main/comp-lab-class/Week12/Runs/Proton
 # Program compiled at                              Sat Dec 12 18:27:15 EST 2020
 # Program compiled on                                         cs001.nyu.cluster
 # Program compiled for                                                nyu-intel
 # Source code revision number                                       git:8c64c6e
 &GLOBAL
   PRINT_LEVEL  LOW
   PROJECT_NAME proton_aimd_1ns_every0.5fs
   RUN_TYPE  MD
   WALLTIME 21600
 &END GLOBAL
 &MOTION
   &GEO_OPT
     OPTIMIZER  BFGS
     MAX_ITER  100
     MAX_DR     3.0000000000000001E-03
     &BFGS
     &END BFGS
   &END GEO_OPT
   &MD
     ENSEMBLE  NVT
     STEPS  2000000
     TIMESTEP     4.9999999999999994E-01
     STEP_START_VAL  2000
     TIME_START_VAL     9.9999999999998226E+02
     ECONS_START_VAL    -1.1027337638886459E+03
     TEMPERATURE     3.0000000000000000E+02
     &THERMOSTAT
       TYPE  GLE
       REGION  MASSIVE
       &GLE
         NDIM  5
         A_SCALE     1.0000000000000000E+00
         A_LIST     1.8595758612559999E+02    2.7263853498399998E-01    1.1526100454610001E+01   -3.6414578262600003E+01 \
             2.3173375816020001E+02
         A_LIST    -2.7809524712060002E-01    8.5951591808710006E-05    7.2189048017650004E-01   -1.9844539343859999E-01 \
             4.2409257583420001E-01
         A_LIST    -1.4825808131210000E+01   -7.2189048017650004E-01    1.3590902121280000E+00    5.1498896280349999E+00 \
            -9.9949268450990001E+00
         A_LIST    -1.0372189126880000E+01    1.9844539343859999E-01   -5.1498896280349999E+00    2.6661910891169999E+01 \
             1.1507715495310000E+01
         A_LIST     2.1801346360420001E+02   -4.2409257583420001E-01    9.9949268450990001E+00   -1.1507715495310000E+01 \
             3.0958394565589998E+02
         &THERMOSTAT_ENERGY
               6.1477672120055435E-03
               2.7102976473407257E-03
               9.2653763781052581E-04
              -1.6025814139690223E-03
              -1.1130442879500343E-02
              -4.0044870261637250E-03
              -9.8266870824412766E-03
              -2.8784093334283884E-03
               8.1108833197527860E-03
               6.2378831508890767E-04
               7.4177024359492784E-03
               7.5593771320193841E-04
              -1.0689402321367837E-02
               1.6504107455041211E-03
               2.0666280537784232E-03
              -8.9417740932946268E-03
               5.0742520248168044E-03
              -3.8509803530576438E-03
               2.5132008899673647E-03
               3.5044314499722662E-03
              -2.6568537047507875E-03
               3.1201001981444221E-03
              -9.6477390397879080E-03
              -7.1394666705974731E-04
              -3.1819683196147473E-03
              -1.2666067441879235E-03
               9.0567604948052077E-03
               6.7587547674312770E-03
               3.7610943439587191E-03
               4.6857956712711253E-04
              -1.6601883004757211E-03
               6.1885303808671653E-03
              -6.0573191626531284E-05
              -3.1535674498439853E-03
               5.8754303247433286E-03
               6.4360648977778503E-03
              -1.1677774473715283E-03
              -1.8387520873254742E-03
               6.9750006956083932E-03
              -1.0131107932550244E-03
               6.9141386778906087E-04
              -5.1047208840692363E-03
               8.8434990826135370E-03
               4.8450872239590732E-03
              -3.4166731229870126E-04
               4.6483363793169471E-03
              -6.2608407190722897E-03
               8.2141458370885915E-04
               7.4980937331033748E-03
               3.6966448165514820E-03
               5.9852064992269916E-05
               6.1829386630245170E-03
              -9.4381240536336088E-03
              -4.3935021711226010E-03
              -6.1552380493522163E-03
              -1.9108248466663958E-03
               2.6485450565659689E-03
              -9.0205070588282518E-03
               3.1845590080667018E-03
               1.3820720680894025E-02
              -1.1279395840078570E-02
               6.8031925324870421E-04
               2.0641311201261493E-02
              -8.2184518939494161E-03
               1.2832512228462255E-02
               3.5045269110994680E-03
               2.2264117251992971E-03
               8.6522265679397654E-03
              -4.5349865101379760E-04
               2.6555060909575424E-02
               7.1513507428717892E-03
               2.2806072501625470E-02
              -6.1711254958652650E-03
               1.3017421921191661E-03
              -2.6927257134974616E-03
              -7.1478761140959099E-03
               4.6000551009020389E-03
               5.1923185887300617E-03
               1.0048822536335307E-02
              -4.0539596968487473E-03
               6.6363545416346457E-03
              -6.3122417476699682E-03
               5.8204776170246927E-03
               2.9357483924634018E-05
               6.9913122555835903E-03
               1.0064920448283351E-02
              -3.8170979445545125E-03
              -2.7193528930466314E-03
               6.3206715873355196E-04
              -1.6163028664757833E-03
               5.0149391284018043E-03
              -6.7897783066880532E-03
              -8.8639050753528694E-04
               2.9046457196070553E-03
               9.6847863744138575E-04
              -4.8837259334263573E-03
               9.8679885676660481E-04
               4.9248079437779479E-03
               9.0165090796733832E-03
               4.3306476953107438E-03
              -3.7485887290955012E-03
              -5.2755271525333912E-04
              -2.2441849676530560E-03
               5.3101498170307565E-03
              -6.6257721292189509E-03
               9.0018518028994118E-03
               7.5734349294854335E-03
              -1.9374872580839050E-03
               9.3884543672963401E-03
              -2.1144385271470697E-03
               2.5592029682111866E-03
              -4.9880845915311238E-03
               2.9592999022041580E-03
               4.9864937924620108E-03
              -1.2887191328729960E-03
               1.1086149560017378E-03
              -7.4215164688766714E-03
               2.3665804552757646E-03
               1.1264162385389795E-03
               1.3722235430955361E-03
              -5.5489187452287118E-04
              -6.2962961840776557E-03
               3.8199833043875771E-03
              -5.1274025523804362E-03
               4.8638204795026308E-03
              -1.3965227010046904E-03
               7.0635779358619926E-03
               3.4060553589997386E-03
               3.5626963645743986E-03
               4.8517529961044289E-03
              -4.9918243983582333E-03
               6.1930116302800035E-03
               7.9909167871131223E-04
              -4.9266842513070530E-03
               1.9072065174153068E-03
               3.9751459625936968E-03
              -2.6724639549392673E-03
              -5.2149432712226352E-03
               1.0926724788838223E-02
              -1.4986272132655964E-02
               2.6241161863986813E-03
               1.4798557981836463E-03
               5.8241292923358352E-03
              -1.5279182804911384E-03
              -3.0210122487484442E-03
              -7.3008469543062509E-03
               1.2608127879008993E-02
              -2.0845628991661088E-04
              -6.8677883933226103E-03
               6.1088966928251722E-03
              -5.5317211431741104E-03
               9.4125814619485330E-03
              -1.0572684044886664E-02
               4.1435722938044563E-03
               2.8619331624794250E-03
               1.0481754662357095E-04
               3.0891157904655423E-03
               3.6316627468683145E-03
              -3.8483656459691613E-03
               5.7048057376623551E-03
              -4.6906518967555913E-03
              -8.0618156633238472E-03
              -2.6202167943641704E-04
               2.1740653491720231E-03
               7.4663342966679765E-03
               1.7402294308639196E-02
               2.4851278943245803E-03
              -2.6437876247970910E-02
               4.7787448771845955E-03
              -7.1418467791191324E-03
              -1.2022611821894021E-03
               1.1694855708718600E-03
               5.1103333567982627E-03
               2.8516204963388143E-03
               4.6367821373514894E-03
               2.1495659734559625E-02
               1.6643256019535754E-02
              -1.7727584435202870E-03
              -4.8714391403711123E-03
               3.6703630947325185E-03
              -6.3189267974571604E-05
               1.2367220390540287E-03
               1.9165437954564227E-02
              -4.8477169979499217E-03
               4.7339709077806141E-04
              -1.5117136781745556E-03
               7.3809912816138901E-03
              -4.3438750496938442E-03
              -3.2909189521040838E-03
              -5.4930058938998149E-03
              -5.1150263884896692E-03
               1.1700806433530379E-02
               7.6724620032611324E-03
              -1.3500505783618222E-03
               4.3537521287928720E-03
              -2.6142846784060372E-03
              -7.5943672313121251E-03
               7.1991726460525242E-03
              -4.8057485268239632E-03
              -8.4780954925330245E-03
               1.1616887666032895E-02
              -3.8443226567036631E-03
               1.8651695816142787E-04
               4.2312723560804571E-03
              -5.0501813047165488E-03
              -8.3022601318259413E-03
               6.5674309989390894E-03
              -2.8637140084666829E-03
              -2.6975088994034922E-03
               1.5584923978571490E-02
              -4.0495627353749125E-03
              -5.2700210334316643E-04
               3.1991149485038292E-03
               4.3065974589120096E-03
              -1.7316607980928165E-03
               1.8654224375366086E-03
              -9.4948560595994897E-03
               5.4907444623969763E-03
              -6.9047073947339933E-03
               2.9529076389068539E-03
               3.3552940575248759E-03
              -3.2118331518663267E-03
              -1.0019640255294577E-02
               2.2515300242774974E-03
               1.0678085385626639E-02
              -9.2339403301082493E-03
               1.2802507045212735E-04
               2.2114087250392923E-03
              -5.1046481330292506E-03
               2.3874795076650550E-03
               2.4565559450484805E-03
               2.4009712060239262E-03
               1.1997216380802523E-02
              -2.2786935373837998E-03
               3.5880533959230338E-03
              -2.9578933913778104E-03
              -1.4654052669790965E-02
               1.1288291492815355E-03
              -2.2873891794880687E-04
              -3.2502560904486091E-03
               6.0855548290633258E-03
               6.4288295491321769E-03
               2.7919004995917963E-03
              -2.4261245902030769E-03
              -4.6448629060884148E-03
              -1.5611751356728722E-03
              -1.0925241048567430E-03
               1.6392188154824969E-04
               3.4748558311770053E-04
              -2.1810398749916699E-03
               7.1847995002694565E-03
              -2.2412617186116993E-03
              -1.0327845216355484E-02
              -1.0733644546008590E-02
               6.3078016189097776E-03
              -8.7550131242259775E-03
              -4.9501406236498484E-03
              -4.8372811857051517E-04
              -7.2598045056230676E-03
              -2.6948398900995419E-03
               1.1736998871076609E-02
               7.6315218097441993E-03
               4.7586901842824967E-04
              -7.6998815296667501E-04
              -3.4842474949551621E-03
              -1.7600709885470271E-03
               1.7086554395346282E-03
              -7.0227455283640135E-03
              -3.9045153570226276E-04
               1.2886238713893874E-02
               8.1841185226463088E-03
              -1.0759335293204841E-02
              -1.5707684726543644E-05
               2.8321395275118953E-03
               3.4702704469275567E-03
              -2.9507920111847426E-03
              -1.7415498276409393E-02
               1.2906083522531754E-02
               2.3077017390707765E-03
              -1.0536645270021283E-03
              -9.5193464129927022E-03
              -2.8431676416014115E-03
              -3.2156862425386321E-03
               4.1599227907068090E-03
              -4.9967937563531201E-03
              -1.2989716816227232E-02
               1.2290114544538532E-02
              -1.3341953094201810E-04
              -1.1332541081125389E-02
               6.3252648856935998E-03
               1.2940535482957830E-02
               2.4605445283502080E-03
              -5.1666535546112183E-03
              -3.4249810983533729E-03
               1.0094740432114804E-02
               6.6359733119034708E-03
              -2.2408643363931349E-02
               1.8671600314910941E-02
               1.4165648654798980E-02
              -1.2665825694025497E-02
               4.0809623270158940E-03
              -1.4590074786053359E-03
               4.8670217230060656E-03
               1.1698719244550000E-02
               1.4330267843840980E-02
              -1.0778959943953165E-02
              -4.9635942123724287E-03
               8.0082747689053276E-03
               1.7395439893775357E-03
               6.9141315887709595E-03
              -2.4112741034242038E-03
              -5.3688832113750057E-03
              -3.3919000080268350E-05
               6.5570067192563851E-03
               3.1136306842352406E-03
              -4.0042249646515251E-03
              -4.4910847331454768E-03
               4.5002404533021258E-03
              -1.6627173803571569E-02
              -5.1345533183296604E-03
               1.6318178914926304E-03
               1.1123330965049982E-02
              -8.0061709542118289E-04
              -7.9030838160573549E-04
              -6.2130393611391464E-03
               1.9396167423350517E-02
               4.3031425426595183E-03
               5.1047334046480436E-03
              -3.8436553048378462E-04
               2.3431011169217637E-03
              -8.8133823860752983E-03
               4.3770841472550335E-03
              -7.0519877530058543E-04
              -3.0802172773580099E-03
               9.5712503579725543E-03
              -5.8437886413056864E-03
              -2.6234521598851365E-03
              -1.8641958672418546E-03
               4.3034219084823700E-03
              -4.1024099319432539E-03
              -4.6502936187907129E-03
              -4.6111712617053534E-03
               4.8354280621025307E-03
               5.3910389225915770E-04
               1.1207940435336801E-02
               5.2273316490459758E-03
               5.5979294420638870E-03
              -1.2920146583614622E-02
               1.1215299084081771E-02
              -2.7453306130362091E-04
              -3.3661233066016104E-03
               5.7468842100277797E-03
              -1.1537484410913802E-02
               1.7763808139063292E-03
              -2.2679922464193962E-04
               4.2989138581546911E-03
               6.5018156504989769E-03
              -9.5034884598011755E-03
              -9.7546270930270219E-03
               4.3139755239103589E-03
              -2.4166992665809362E-03
              -1.1647789434143482E-02
               2.3343153622460991E-02
               4.3057402683315405E-04
              -5.0666643980465786E-03
              -4.5864931179761129E-03
               1.1116088485436226E-02
              -8.7412081156706348E-04
              -8.0259874353097605E-03
              -7.0972467792007349E-03
               4.8637482315767111E-03
               1.0683848161948064E-02
               1.2904193565071284E-03
              -1.4024404354491401E-03
               2.8573150044562622E-03
               8.3901940488668256E-03
              -9.7374487442351398E-03
              -1.6596493373280428E-02
               4.9031631022668819E-03
               1.1400105166007058E-02
               2.2172053909254325E-03
               4.1464646462300209E-04
              -7.1087551978791927E-03
              -4.4801178760975043E-04
              -1.8476000418391061E-02
               7.2742234753582474E-03
               5.2811112474582507E-03
               7.6578910838017420E-05
               5.8252065671823405E-05
               7.0644069868056238E-03
              -2.2494944553329860E-03
               5.0009340054118865E-03
               1.7579726046144429E-03
              -7.6468322590764626E-03
               1.1176098413517624E-02
              -6.2251500481628136E-03
               7.0130202357356524E-03
              -1.0188168477619212E-02
               9.2442434857807933E-03
              -2.4903729893945633E-04
              -1.3863859067843834E-03
              -3.3171960279328638E-04
              -4.5168911212405969E-03
              -7.7315860308670948E-03
               2.6934677140845473E-03
              -1.1186076079091074E-02
               1.1394186890141781E-03
               2.6258024303036994E-03
              -9.6936807006104038E-04
              -3.9071766994976288E-04
              -4.3926577511698729E-04
              -6.5617853770731996E-03
               1.1257815128843147E-02
              -4.4724163635756990E-03
               3.6412464491991897E-04
               3.1568524282468342E-03
              -6.2009865149196281E-03
               2.8849223810688955E-03
               1.2899768800313193E-03
              -3.9441203676712014E-03
               4.2343043936502673E-03
               1.1205289204581760E-02
              -1.3242634196646932E-03
               7.4957219541585147E-04
               6.6891372064493415E-03
              -1.6122125726221121E-03
              -1.4310795334586306E-03
              -7.9253490981463833E-03
              -1.9475078285376766E-03
              -3.7968290986236438E-03
               3.3949997586513728E-04
              -6.8217249552224267E-03
              -7.2288633640023321E-03
               6.8438791702974643E-03
               1.5565010268167145E-02
               9.1365723886297390E-04
              -7.8613973705426044E-03
              -1.8712654906398478E-03
              -1.1256184888801014E-02
              -1.0110804819451473E-02
               1.1188439692664642E-02
              -4.0642592994859818E-03
              -1.1995149437542816E-03
               1.0728211944835168E-02
               2.2670674971946424E-03
               9.2752084893843664E-03
               5.6188232986111959E-03
               1.6389227761021544E-02
               4.3750050971768347E-03
              -9.6517021965420568E-03
              -4.8487195468507717E-03
              -1.0198163059403770E-02
               1.1034780495752468E-02
              -1.9553802650265377E-03
               8.4756970307916233E-04
              -3.1660315343794831E-03
              -1.2037100903876507E-02
              -2.1137791728818776E-02
               1.1722805684032259E-02
              -4.4579732604994263E-04
               1.8092494098483777E-02
               7.0479992675513328E-03
              -2.5020965937812729E-03
               9.0439198118174510E-03
               7.5055726999237720E-03
              -6.3775537684026178E-03
              -9.4671312833996737E-03
              -4.9590859721381896E-04
               1.2337224727675015E-02
              -1.5085989466461346E-02
              -1.8328469486221118E-03
              -3.3623401631398871E-04
               1.9310997296057594E-03
              -6.7255655976044921E-03
              -5.1550920357564664E-03
               5.1459331563956613E-03
               4.3645629676849996E-03
               7.9817083768832734E-03
               8.5682585124174978E-03
              -8.9877293537894073E-03
              -1.5782939588409697E-03
              -9.7727430291603291E-03
               2.3562877871122381E-03
               4.9581117303243829E-04
               9.9400407452112185E-04
               7.3708975728667707E-04
               2.4527547158539388E-05
              -2.1370459054454176E-04
               1.5262761387313082E-02
              -6.4239044889751818E-04
               9.0069644686205791E-03
               6.8697979391088822E-03
               1.0361272244847335E-03
              -2.9658423089641133E-04
              -4.5483421190724337E-03
              -1.3822581964342091E-04
               4.7460613984839075E-03
              -2.3390367361725210E-03
               6.3334366416470194E-04
               8.7257958285756627E-03
              -4.8785895751129983E-05
               1.1052840873156420E-02
              -1.9234613087741541E-02
               1.7020319228571591E-02
               1.2287517143531084E-02
              -1.7437278155158494E-02
              -1.2287093643101710E-02
               1.0231977201468879E-03
               6.0939053170978334E-03
              -1.3586187409910758E-04
              -3.5936916995259970E-03
               7.8758661054986363E-03
              -7.7763160225315315E-03
               4.8860444734150519E-03
               7.6772764833881093E-03
              -2.4049821220446934E-02
              -2.0587597981986594E-03
               7.0826909457506072E-03
              -6.8610130953576805E-04
              -1.0547424683223434E-03
              -7.7433268678576079E-03
              -7.5594951960596699E-04
               1.0914069997639664E-02
               1.8780255787063456E-03
               1.3532920774870342E-03
               5.7603129587974209E-03
              -4.0626651847887737E-03
              -3.0420909343656074E-03
              -2.9444155125225063E-03
               3.0531476396858013E-04
               8.2676787772077188E-03
               7.5566618988725919E-03
              -1.0726658372883262E-02
              -1.0674519941631506E-02
               4.1675825559424270E-03
               1.2893650747476772E-03
               8.2548041719985481E-05
               4.8161005617602289E-03
               3.6303002840224496E-03
              -5.4409167619326785E-05
               7.8063044708018715E-04
              -2.1412239958288797E-03
              -3.5192986539501632E-03
              -2.1899408716853115E-04
               5.2987194188055965E-03
              -4.0186155750861078E-03
               1.5831849283952142E-02
              -9.6123233675776118E-05
              -1.5588581095711893E-03
               3.3172464027771756E-03
              -3.5718347904089747E-03
              -2.1763156755307557E-03
              -2.4705195785186627E-04
              -4.6028767300330753E-03
              -1.9234245560392688E-03
               1.0301178863288190E-03
              -1.2470340957286368E-03
              -3.7040845884285132E-04
               1.0951806920317473E-02
              -1.1765783688060638E-03
              -2.8233457686563093E-03
               4.8053487472745696E-03
               1.0012953536804408E-03
               1.4824809914835968E-03
              -1.0015184369399808E-02
              -6.2143509199892111E-03
              -1.4932655812595354E-03
              -5.0289168079615497E-03
              -7.8117648148912609E-03
               1.3393941749236346E-02
              -7.1506373274732018E-03
               1.7372535514239705E-04
              -1.1423925796004658E-03
              -4.5266911377324463E-03
              -4.1185344698771464E-04
               6.9927149065343907E-03
               1.0269036470315700E-02
               5.6517944961594225E-03
              -6.4729139934500040E-03
         &END THERMOSTAT_ENERGY
         &RNG_INIT
Wiener process for Thermostat # 1        1 F T T  -4.3866331554119464E-01        3463026290.0         996283881.0        3077134961.0        1575188103.0         352198642.0        1255594993.0             12345.0             12345.0             12345.0             12345.0             12345.0             12345.0             12345.0             12345.0             12345.0             12345.0             12345.0             12345.0
Wiener process for Thermostat # 2        1 F T T   6.1664168869435698E-01         581397078.0        3867423482.0         327967633.0        1486938113.0          26429212.0        4093174459.0        3692455944.0        1366884236.0        2968912127.0         335948734.0        4161675175.0         475798818.0        3692455944.0        1366884236.0        2968912127.0         335948734.0        4161675175.0         475798818.0
Wiener process for Thermostat # 3        1 F T T   2.0518696979926636E+00        1062843694.0        3278483557.0        2630284801.0         342499437.0         508306288.0         570022504.0        1015873554.0        1310354410.0        2249465273.0         994084013.0        2912484720.0        3876682925.0        1015873554.0        1310354410.0        2249465273.0         994084013.0        2912484720.0        3876682925.0
Wiener process for Thermostat # 4        1 F T T   8.6483655468840070E-01         858988242.0         878260951.0        1341305949.0        1687735708.0        1261279903.0        1615458589.0        2338701263.0        1119171942.0        2570676563.0         317077452.0        3194180850.0         618832124.0        2338701263.0        1119171942.0        2570676563.0         317077452.0        3194180850.0         618832124.0
Wiener process for Thermostat # 5        1 F T T  -7.2623034709222295E-02        3503246388.0        3640749438.0          80160185.0        4050541932.0        1809135917.0         826251710.0        1597262096.0        3906379055.0        3312112953.0        1016013135.0        4099474108.0         275305423.0        1597262096.0        3906379055.0        3312112953.0        1016013135.0        4099474108.0         275305423.0
Wiener process for Thermostat # 6        1 F T T   2.6094790259997280E+00        1648662560.0         298744963.0         276080774.0        3452610735.0        2129471280.0        4132861437.0          97147054.0        3131372450.0         829345164.0        3691032523.0        3006063034.0        4259826321.0          97147054.0        3131372450.0         829345164.0        3691032523.0        3006063034.0        4259826321.0
Wiener process for Thermostat # 7        1 F T T   1.3118545096244869E+00        4025695046.0        1027992126.0        3217973651.0        2155997853.0        1780084567.0        1907814450.0         796079799.0        2105258207.0         955365076.0        2923159030.0        4116632677.0        3067683584.0         796079799.0        2105258207.0         955365076.0        2923159030.0        4116632677.0        3067683584.0
Wiener process for Thermostat # 8        1 F T T   7.1524753302764935E-02        2631328646.0          66904958.0        3191287979.0        3452779318.0        2048731614.0        3759050068.0        3281794178.0        2616230133.0        1457051261.0        2762791137.0        2480527362.0        2282316169.0        3281794178.0        2616230133.0        1457051261.0        2762791137.0        2480527362.0        2282316169.0
Wiener process for Thermostat # 9        1 F T T  -1.0980465140389938E-01        1977246253.0        1903248984.0        3508262652.0        2466127224.0         300284070.0         767034957.0        3777646647.0        1837464056.0        4204654757.0         664239048.0        4190510072.0        2959195122.0        3777646647.0        1837464056.0        4204654757.0         664239048.0        4190510072.0        2959195122.0
Wiener process for Thermostat # 10       1 F T T   1.9081094228418396E+00         405211316.0        3215252316.0        3029076279.0        3899943421.0         886526099.0         586515832.0        4215590817.0        3862461878.0        1087200967.0        1544910132.0         936383720.0        1611370123.0        4215590817.0        3862461878.0        1087200967.0        1544910132.0         936383720.0        1611370123.0
Wiener process for Thermostat # 11       1 F T T  -5.3344054384789541E-01        3450000619.0        1059116059.0        3916567347.0         635813254.0        3901690603.0        3696418470.0        1683636369.0         362165168.0         814316280.0         869382050.0         980203903.0        2062101717.0        1683636369.0         362165168.0         814316280.0         869382050.0         980203903.0        2062101717.0
Wiener process for Thermostat # 12       1 F T T   8.9448207812820613E-01        1696219248.0        1783691089.0        1685873716.0        1285524479.0        2726140602.0        4269630803.0         272317999.0         166758548.0         310112982.0         201045826.0        1680231254.0         118290799.0         272317999.0         166758548.0         310112982.0         201045826.0        1680231254.0         118290799.0
Wiener process for Thermostat # 13       1 F T T  -1.0297203341400047E+00        4019568919.0        3484227797.0         947541978.0        4224885921.0        2127446270.0         502669027.0        2245755202.0        1652682525.0        2865544364.0         721509566.0         209733568.0         592362218.0        2245755202.0        1652682525.0        2865544364.0         721509566.0         209733568.0         592362218.0