 # Version information for this restart file 
 # current date 2022-11-29 18:23:23.615
 # current working dir /scratch/work/courses/CHEM-GA-2671-2022fa/wz2449/main/comp-lab-class/Week12/Runs/Proton
 # Program compiled at                              Sat Dec 12 18:27:15 EST 2020
 # Program compiled on                                         cs001.nyu.cluster
 # Program compiled for                                                nyu-intel
 # Source code revision number                                       git:8c64c6e
 &GLOBAL
   PRINT_LEVEL  LOW
   PROJECT_NAME proton_aimd_1ns_every0.5fs
   RUN_TYPE  MD
   WALLTIME 21600
 &END GLOBAL
 &MOTION
   &GEO_OPT
     OPTIMIZER  BFGS
     MAX_ITER  100
     MAX_DR     3.0000000000000001E-03
     &BFGS
     &END BFGS
   &END GEO_OPT
   &MD
     ENSEMBLE  NVT
     STEPS  2000000
     TIMESTEP     4.9999999999999994E-01
     STEP_START_VAL  1000
     TIME_START_VAL     4.9999999999999636E+02
     ECONS_START_VAL    -1.1027337638886459E+03
     TEMPERATURE     3.0000000000000000E+02
     &THERMOSTAT
       TYPE  GLE
       REGION  MASSIVE
       &GLE
         NDIM  5
         A_SCALE     1.0000000000000000E+00
         A_LIST     1.8595758612559999E+02    2.7263853498399998E-01    1.1526100454610001E+01   -3.6414578262600003E+01 \
             2.3173375816020001E+02
         A_LIST    -2.7809524712060002E-01    8.5951591808710006E-05    7.2189048017650004E-01   -1.9844539343859999E-01 \
             4.2409257583420001E-01
         A_LIST    -1.4825808131210000E+01   -7.2189048017650004E-01    1.3590902121280000E+00    5.1498896280349999E+00 \
            -9.9949268450990001E+00
         A_LIST    -1.0372189126880000E+01    1.9844539343859999E-01   -5.1498896280349999E+00    2.6661910891169999E+01 \
             1.1507715495310000E+01
         A_LIST     2.1801346360420001E+02   -4.2409257583420001E-01    9.9949268450990001E+00   -1.1507715495310000E+01 \
             3.0958394565589998E+02
         &THERMOSTAT_ENERGY
               1.6860974445062297E-03
              -2.4774119137444775E-04
              -1.8991785193154427E-03
               4.5533186209511063E-03
              -7.5602168438164740E-03
              -3.2493712946305799E-03
              -5.6218594139709824E-03
              -9.1026179846903307E-04
               7.1441948493277951E-03
               3.5420949460361049E-03
               7.8157506456609897E-03
              -4.5778534207096527E-03
              -4.3945033060995876E-03
              -5.2526125875138842E-03
               3.3247037688436455E-03
              -2.4792778814861876E-03
               2.9047357803040834E-03
              -5.0282913707731056E-03
               2.5491742066103174E-03
               7.2489471734886522E-04
               3.1168716832462935E-03
               1.8963249626404244E-03
              -4.7373172841235931E-03
               2.0236731530498069E-03
              -5.9546961045321327E-03
              -6.0110495959190035E-03
               7.2647756327424247E-04
               7.2942287216656021E-03
               4.3647615935281381E-03
               1.1936013221940831E-03
              -3.1268824145000841E-03
               3.0456495891353469E-03
               3.9043653115885038E-04
               7.1253865988789907E-03
              -1.1980129552054335E-02
               9.3970423210618832E-03
              -3.6619613974300750E-03
               5.0072485662243827E-04
               2.1111463422398041E-03
              -5.5931988813731877E-03
               5.7349694535357614E-03
              -1.3695700449905415E-03
               4.8741362324838224E-03
               6.5903669402729188E-03
              -4.9884365556896937E-03
               5.2106394673993505E-03
              -5.3971576051946041E-03
               5.1958788367146853E-04
               2.1004707990388014E-03
              -5.6512404264754583E-03
               2.1968687090414864E-03
              -2.2726359837919293E-03
              -7.2253673092810529E-03
               8.5825479356577811E-04
              -8.7511837801880087E-04
               1.1485544074410980E-03
               3.2954871128365116E-03
              -7.9454681026012899E-04
               2.9021244638538089E-03
               6.2198385091045867E-03
              -5.4487810353486561E-03
              -8.4700157936406953E-04
               1.0837649261069747E-02
              -4.6789163288053302E-03
               1.1852719465867349E-02
               3.9223408121830039E-03
               3.1318887500993947E-03
               1.7918275909990439E-03
               6.9892092960271955E-03
               2.7175281656830034E-02
               5.1086769119190511E-03
               1.8419411551881232E-02
              -7.0539469961457854E-04
              -2.0039457230683214E-03
              -1.7792824224971415E-03
              -1.2153661159687907E-02
               7.3735907823172840E-03
               3.3959143435115281E-03
               1.1223113150082918E-02
              -6.1777125150308896E-03
               2.9654602469323253E-03
              -1.5512226297616268E-03
               1.0558210296255502E-03
               1.0852717575605721E-03
               3.9784364234418130E-03
               6.8010661096103691E-03
              -6.4779387818217540E-03
               1.1694755006628216E-03
               2.0478392630357213E-03
              -4.9572386259522320E-03
               3.9965060314774703E-03
              -4.4005478736087343E-03
              -5.7938372838356607E-04
               7.1685080802237654E-04
              -9.1858681625385970E-03
               2.5966789974725458E-03
               9.2158668588190381E-03
               6.5961670293487066E-03
               4.8091758897442285E-03
               3.5240914717907406E-03
              -4.7763120176857049E-03
              -3.6968548944093442E-03
              -2.3895903899944860E-03
               1.5404930216968860E-03
              -1.5790436045219078E-03
              -4.5365598488040842E-04
               5.5623634866766407E-03
              -5.4568418380247894E-04
               4.3400094013027728E-03
              -2.9907823398332947E-03
               1.1954087312237875E-03
              -4.8354227209247156E-03
               4.0136848015101968E-03
               1.1444412947789627E-02
               2.6294668554328522E-03
               3.4481498163504943E-03
              -1.1519313899821934E-02
               1.1618967371502689E-03
              -2.3102854992633416E-03
              -4.9460896947559965E-03
               2.3627707243049504E-03
              -3.9716757689301817E-03
               2.9816003276028854E-03
               3.2588866183929934E-03
               5.3688703576372648E-03
              -5.7346539567895887E-03
               2.1902892342066105E-03
              -2.9583295958580595E-03
               4.4726391273428919E-03
              -9.4236178083354164E-03
              -1.7623903759078304E-03
               4.2816089210721700E-03
               3.7013661381808801E-03
               2.8216607581012078E-03
              -1.1156104994442006E-03
               1.5972861498170004E-03
              -3.1277279630915854E-04
               1.2965960311603540E-04
               3.0303630390171978E-03
              -1.2140743355368201E-02
               2.9025439200050605E-03
               6.1444639491052824E-03
               7.2545010315583610E-03
              -5.2764109493478508E-03
              -4.1061569860602401E-03
              -1.2761916287319522E-04
               1.2506942185427203E-02
              -1.6048917714863858E-03
              -4.3213166049107139E-03
               6.2173211253685988E-04
              -1.8083947797473236E-03
               2.5866514255841961E-03
               2.0243355614862572E-03
               6.6244800485719749E-04
               7.4739392086726878E-04
               3.6739901911590675E-03
               3.1921929798098803E-03
              -3.4761173961802829E-03
              -7.5332931522301052E-04
               7.0640696781105045E-03
              -2.6919015244113325E-03
              -3.7141552857804013E-03
              -1.1397099849116011E-03
              -9.2243837083096872E-04
               2.8234089626349959E-03
               6.8337173195509616E-03
               8.7766382655510376E-03
              -8.9531960769486749E-03
               3.4550827031342866E-04
              -2.8106723219013348E-03
               1.0334686062883759E-03
              -4.9824301603218404E-03
              -7.9162613521656757E-04
              -1.0208815878979872E-03
               7.9507823909622088E-03
               1.7197722086883683E-02
               1.8542979868547870E-02
               1.0181927112315546E-04
               4.6545613911550994E-03
               1.0687211839554632E-03
               2.4085471534834439E-03
               4.8798787037821027E-03
               6.9553791489875430E-03
              -7.4340159215969858E-03
               1.9195745850296166E-03
               9.4609184540722928E-04
               4.1363497354003189E-03
               1.6500442891849278E-03
              -9.7407561290771853E-04
              -5.0654975473337785E-03
              -1.1675136212415092E-03
               3.8007127496163108E-03
               2.4887919554666734E-03
              -3.2185503222814937E-03
               1.8553869922484844E-03
               6.0546837485992242E-03
              -7.3873805295809310E-03
              -3.5887575942021132E-04
               3.9518689205681450E-03
              -6.7929439800267473E-03
               2.5560079218970981E-03
               1.6116729177561122E-03
               8.4340129447918715E-04
               2.0174762084787237E-03
              -1.1028470575533229E-02
              -4.2866465465220853E-03
               3.2092847447022102E-03
               5.3262359041948574E-03
              -2.4521179440239419E-04
               1.0083346434862145E-02
              -6.7240875716104119E-03
               2.4893961707351294E-04
               6.9120665014002613E-03
               5.2631801297187554E-04
              -6.4874312797869550E-03
              -7.2211018268272071E-05
              -2.1830698070447489E-03
               6.3948644422647128E-03
               1.1243619456546255E-03
               2.6697107872394269E-03
               4.4596864863079193E-03
              -3.7329090551210379E-03
              -7.3656880964686850E-03
               9.4559387088406029E-04
               3.6124758720953881E-03
               9.8109181048555228E-04
               3.7416857628071081E-03
               8.3656062570564666E-04
              -3.4772501767447485E-03
              -9.5995393776447397E-04
               6.7556217670481766E-04
               2.0754094766829781E-03
               1.0177330133546852E-02
               1.6759976647805707E-03
              -5.1995603681507380E-03
               2.7937157843184635E-03
              -8.1912299364515408E-03
               1.3105693038564980E-03
              -2.9426474298459007E-03
              -1.0607393112269036E-03
              -1.3979091371649993E-03
               9.8425927186333493E-04
               7.3928265902457923E-03
              -1.1631805708309305E-04
              -4.4433037360175525E-03
              -3.1941369590756546E-04
              -3.5107807093878959E-03
               1.5990761968364988E-03
              -3.0272057502129706E-03
              -3.5611876580588588E-04
               3.5987985808245424E-03
               1.7551071302439333E-04
              -2.2622123898969866E-03
              -6.6574630407162010E-03
               4.3850562656555549E-03
              -4.7080198980501611E-03
              -5.4907959629117093E-03
              -1.6234179354152592E-03
              -5.2216999918761114E-03
              -1.2983136197151385E-03
               6.8684948584035333E-03
               3.7743200303861813E-03
               7.9246085593676161E-03
              -3.1641494445994081E-04
              -1.0660136104416330E-03
              -4.6386139488377459E-04
               1.9523774400949509E-04
              -2.9306064940708867E-03
              -1.4617293080144370E-03
               8.8443304031461337E-03
              -3.3110178393329949E-03
              -3.5869705443172858E-03
               4.6806667470886674E-04
               2.7169046530359660E-03
              -3.2850975729482351E-03
               8.8529976735806921E-04
              -1.1145810349848389E-02
               9.0166126308298157E-03
               1.3021556390626966E-03
               5.9360462283911705E-04
               2.8363525808972265E-03
              -7.0285318907647200E-03
               2.2094031388238860E-03
              -1.6758203915856146E-03
              -1.3834568847101000E-03
              -3.7102588806278030E-03
               3.8018867202866315E-03
              -6.9690404373205731E-03
              -1.2414043042109630E-02
               8.5060083953174305E-03
               7.6665871536368852E-03
              -1.8791470983482061E-04
               3.3676861143273722E-03
               3.6346466354944145E-03
               7.9868346677908024E-04
               2.7920222433289203E-03
              -5.8484641071734943E-03
               8.5785168407304484E-03
               1.5238552171657062E-03
              -6.9910686073818874E-03
               3.5051948021852459E-03
               3.1992048010086281E-03
               1.8025479107190217E-03
               5.8351157384374753E-03
               9.3503021682732421E-03
              -2.1844740103631175E-03
              -6.9103111591415874E-04
               5.9991773443255497E-04
               1.1032619502821745E-03
               7.3276301810802705E-03
              -1.6460855050399407E-03
              -4.3347671497099829E-03
              -3.6006753402440211E-04
               2.8357430524761093E-03
               3.4508227971360686E-03
              -5.1359118625748153E-03
              -3.8592241243605783E-03
               1.1644767519108715E-03
              -3.6793403650842082E-03
              -1.2257850555448383E-03
               3.1019682238559057E-03
               1.1407921049936978E-04
              -1.6313662190339572E-03
              -7.7041939464176437E-03
               1.2735101795428552E-03
               2.8713087772006748E-03
               5.3715519141721768E-03
               3.3060696078157847E-03
               3.7468123800947538E-03
              -2.2443529289597851E-04
              -4.7585128915246400E-03
              -2.4118425226506618E-04
               1.8941829422206851E-03
              -3.2879937014732327E-03
              -4.9807156990531029E-03
               1.7982145334983625E-03
               3.3718211612750078E-03
               1.1470896954730919E-03
               9.9751193627033868E-05
               3.5117476659227531E-03
              -7.1238032606739743E-03
               1.3508121824880120E-05
               6.8315144335346703E-03
              -3.9163057740722968E-04
               3.8879885937022633E-03
               8.1398997768107832E-03
               2.6078971005779783E-03
              -6.8725714874618704E-03
               8.6647866163134645E-03
              -3.7788381321861341E-03
              -1.4862471791921722E-03
               1.5030200699072342E-03
              -8.5301897285790448E-03
               1.3210329894330580E-03
              -2.1439482247132655E-03
               4.4537355861549592E-04
               2.4807683898242453E-03
              -1.6439634903987451E-03
              -3.1456464538676667E-03
               5.3842771613883070E-03
              -2.2828220655587402E-03
              -2.1638876291887410E-04
               1.0299908579779376E-02
               5.0867855757187712E-03
              -1.4860431534374509E-03
               2.9935680255422578E-03
               1.6568451785147466E-02
               1.7278807916154446E-03
              -1.5861138611843403E-02
              -6.7179922721592056E-03
               3.1297464000523104E-03
               2.5851856750738881E-03
               9.5635684625930504E-04
               1.4553297485643392E-03
               7.0624624530252493E-04
               2.6586405858635689E-04
              -8.4665522882792013E-03
              -5.1714535884271259E-03
              -3.6078193703919983E-03
               1.0707874665663353E-02
               1.0048632354078321E-03
              -8.3243470642608620E-04
              -2.4633019461361306E-03
              -3.4352082690060448E-03
              -1.1874724760823973E-02
               5.1947312360604908E-03
               1.5362777965384359E-03
               4.2907667390725780E-03
              -2.9238183105605503E-03
               5.7161241921248294E-03
               2.7068070614523476E-04
               3.5994608953867507E-04
              -2.0344252612930058E-04
              -7.0259632714120444E-03
               5.1452990982697967E-03
              -1.7322497381914699E-03
               3.6435908583947758E-03
              -2.2989744812340531E-03
               3.5440139750643161E-03
               7.8144043830800220E-04
              -2.8960220635667749E-03
               2.7848171856860123E-04
              -9.3390144870397849E-05
              -1.2731008720470128E-03
               2.5609348375360040E-03
              -1.5483108153285438E-03
               5.3195528936069206E-04
              -4.8951732907040954E-03
              -1.8922017609142707E-03
               1.6374325998246054E-03
               2.3075508508208190E-03
              -5.2131933123385722E-03
               1.1081444013523942E-03
              -3.8373057477254077E-03
               2.1873041448698368E-03
               3.1384220540243563E-03
              -2.4421941422336337E-03
               4.3918117912291766E-03
              -3.1256562527650742E-03
               6.5392141383656377E-04
               8.6561039914460447E-04
               4.5381649027274717E-03
              -6.7407713811226443E-03
               1.2500961875467780E-03
               5.2827688416668727E-03
               1.3605757301706795E-03
               2.2576496946916515E-03
              -4.7056946221381186E-03
               2.0437639434474262E-03
               3.0278348353442496E-03
               2.5109679484000764E-04
              -6.2876272870094462E-03
              -1.2712270502480105E-05
              -5.0920389748573547E-03
               8.4055066816609656E-03
               2.0178722615646462E-03
              -2.8355442258179934E-03
              -4.7772626045404059E-04
               8.9427139616156609E-04
              -2.1484795224932509E-03
               8.3660957610456974E-03
              -2.8631549742235496E-03
               2.1740859408597752E-03
               2.6215025898192867E-03
              -2.9806834568418730E-04
               7.4386014170009212E-03
               6.1211386090125131E-03
               1.1377269597025754E-02
               1.5117976801379200E-03
              -1.0351397728132816E-02
              -2.4397664747249389E-03
              -4.8682823298904125E-03
               6.7965503028576237E-03
              -1.7876871496743073E-03
              -3.3240384980619774E-04
              -2.6193538574738173E-03
              -4.2678512229653324E-03
              -3.7975994386969763E-03
               8.1943582299787393E-04
               3.5974448411966141E-03
               6.3983215902914644E-03
               5.9162791184751767E-03
              -5.3379169302890193E-03
               7.1460576254891153E-03
               1.0746358173936566E-02
               6.3314360728451767E-04
              -6.9743992695722430E-03
              -3.9164316861287430E-03
               4.3901003117242012E-03
              -7.0150359635960660E-03
               1.6681698271666383E-03
               1.6932603735436730E-03
               2.6187277069959721E-03
              -6.6330103440223782E-04
              -3.0689000313753813E-03
               2.0439846041624375E-03
               1.4077144184025496E-03
              -3.9950868009836736E-03
               4.1962204949440524E-03
               1.3489304418444553E-03
              -1.9757722545071144E-03
              -4.7769211136390989E-03
               1.4830393881012215E-03
               1.9001551975001312E-03
               3.4707074410148674E-03
              -2.1726172210470717E-03
              -7.1660493835462038E-04
              -2.7407566224119384E-03
               8.6799945509697628E-03
              -4.0323748708558750E-04
               2.2455375778250605E-03
               5.0405437751534906E-03
               5.5596837125821835E-03
              -7.0095810015368687E-03
              -6.8189670031412655E-04
              -3.7855443513680514E-04
               1.4656167002560546E-03
               3.0659304411110918E-03
               3.6515841177087796E-03
               1.8740316256584092E-03
              -2.8844855373765551E-03
               4.7119466968842359E-03
              -1.3946009905412605E-02
               1.7783007651464212E-02
               1.4718048963710568E-03
              -7.2687949027587908E-03
              -5.4000012490104032E-03
               6.9204867326977512E-04
               5.2090206235991844E-03
               1.3211561487995235E-03
               1.5063955727206519E-03
               7.4118251590511101E-04
              -6.6525411770786066E-03
              -7.7808904501259907E-03
               1.0355330300112615E-02
              -8.6080141266419198E-03
              -3.2545945468389209E-03
               5.4564931062445789E-03
               2.6138364945200187E-03
              -3.5063615344902311E-04
              -6.0550933669577213E-03
               5.1201637911867234E-03
               6.3535560589518744E-03
               4.9573496099439827E-04
              -7.7203241001368432E-04
               4.2246079555237834E-03
              -3.5763151271437001E-03
               2.5041427216027594E-04
               8.2322836947538005E-04
              -8.0215276984746029E-04
               4.1813238588178248E-03
              -1.3636088563662081E-03
              -2.1633071498815678E-03
              -4.7746202110079353E-03
               2.2140394970773794E-03
              -1.3490059023309978E-03
               9.1294134966099657E-04
              -3.6203760187899455E-03
               2.0854408559358394E-04
               7.1232316467594869E-03
               9.8428731165904355E-04
              -2.9685389242084526E-03
              -8.7398898624032034E-03
               1.7585751402814931E-03
               3.9645348358457438E-03
              -1.2733742519441776E-03
               3.8034917087212171E-03
               2.4707072362019169E-03
               2.0001600357289094E-03
               1.3524856322265771E-03
              -6.4751482667078936E-03
              -1.4055443641463976E-03
               4.7586711169152922E-04
              -3.7777062297713279E-03
              -1.0671175153278767E-03
              -2.0698197687595687E-03
              -5.2404822761212373E-03
              -5.5365541143552249E-03
               9.9468831950359389E-03
               2.7466103870354263E-03
               3.4939676629892761E-03
               3.9424105454399228E-03
              -1.3123759189825721E-03
               4.3922285977861762E-03
              -3.2604183614705390E-03
              -3.8338802568123993E-04
              -4.3418613014556736E-03
              -3.3656510206994950E-03
               4.5708471369572731E-03
               4.3731855932336227E-04
              -1.7749746956085229E-03
              -2.6692616289776417E-03
              -3.0335921312877401E-03
              -5.7850903446769316E-03
               2.5356507072301828E-03
               3.2798139372536338E-04
               6.9955888254959447E-03
               8.9648102680766270E-03
              -4.6549656925043547E-03
         &END THERMOSTAT_ENERGY
         &RNG_INIT
Wiener process for Thermostat # 1        1 F T T  -9.8236738167888460E-01         226733040.0        4248387519.0        1164353849.0        2758509449.0        3644127687.0        1764793484.0             12345.0             12345.0             12345.0             12345.0             12345.0             12345.0             12345.0             12345.0             12345.0             12345.0             12345.0             12345.0
Wiener process for Thermostat # 2        1 F T T  -1.4171306107827426E+00        1528154308.0        2775625301.0         197130159.0        1452211673.0        1835562137.0        1983376171.0        3692455944.0        1366884236.0        2968912127.0         335948734.0        4161675175.0         475798818.0        3692455944.0        1366884236.0        2968912127.0         335948734.0        4161675175.0         475798818.0
Wiener process for Thermostat # 3        1 F T T   8.6049543281786645E-01        2248570378.0        1724762616.0          52903713.0        3229622658.0        3199004837.0        4241126217.0        1015873554.0        1310354410.0        2249465273.0         994084013.0        2912484720.0        3876682925.0        1015873554.0        1310354410.0        2249465273.0         994084013.0        2912484720.0        3876682925.0
Wiener process for Thermostat # 4        1 F T T  -1.5460863137690717E+00         957380376.0         510326667.0        2247033635.0        2033071685.0        3054261466.0        3462352516.0        2338701263.0        1119171942.0        2570676563.0         317077452.0        3194180850.0         618832124.0        2338701263.0        1119171942.0        2570676563.0         317077452.0        3194180850.0         618832124.0
Wiener process for Thermostat # 5        1 F T T   1.5428690481661575E-01        4203301200.0         738999836.0        1485820986.0          20648636.0        2223680357.0        4294941489.0        1597262096.0        3906379055.0        3312112953.0        1016013135.0        4099474108.0         275305423.0        1597262096.0        3906379055.0        3312112953.0        1016013135.0        4099474108.0         275305423.0
Wiener process for Thermostat # 6        1 F T T   7.0411917217518150E-01        1265311014.0        3687607523.0        1792102642.0         142025920.0         459804801.0        1211121065.0          97147054.0        3131372450.0         829345164.0        3691032523.0        3006063034.0        4259826321.0          97147054.0        3131372450.0         829345164.0        3691032523.0        3006063034.0        4259826321.0
Wiener process for Thermostat # 7        1 F T T  -9.5744195640119531E-02        4040223344.0        4246262317.0         329086624.0          28777921.0        2946509694.0        1489700490.0         796079799.0        2105258207.0         955365076.0        2923159030.0        4116632677.0        3067683584.0         796079799.0        2105258207.0         955365076.0        2923159030.0        4116632677.0        3067683584.0
Wiener process for Thermostat # 8        1 F T T  -1.2413826789147817E-01         252045112.0        2848200345.0         154646410.0        1271924195.0        1873079261.0        3351978939.0        3281794178.0        2616230133.0        1457051261.0        2762791137.0        2480527362.0        2282316169.0        3281794178.0        2616230133.0        1457051261.0        2762791137.0        2480527362.0        2282316169.0
Wiener process for Thermostat # 9        1 F T T   1.0331244080464512E+00        3784506675.0        1914172684.0        3527875272.0        1610827989.0        3855196701.0        1117597481.0        3777646647.0        1837464056.0        4204654757.0         664239048.0        4190510072.0        2959195122.0        3777646647.0        1837464056.0        4204654757.0         664239048.0        4190510072.0        2959195122.0
Wiener process for Thermostat # 10       1 F T T   2.1466585360569199E-01        3057685686.0        2869029583.0         411221469.0        2821893460.0         322924656.0        1143227575.0        4215590817.0        3862461878.0        1087200967.0        1544910132.0         936383720.0        1611370123.0        4215590817.0        3862461878.0        1087200967.0        1544910132.0         936383720.0        1611370123.0
Wiener process for Thermostat # 11       1 F T T  -4.4132046785776799E-02        1554543736.0        2717576499.0        4135075403.0        2618383353.0         642871762.0         249586537.0        1683636369.0         362165168.0         814316280.0         869382050.0         980203903.0        2062101717.0        1683636369.0         362165168.0         814316280.0         869382050.0         980203903.0        2062101717.0
Wiener process for Thermostat # 12       1 F T T  -5.6161533877704317E-01        1770324141.0        3770017049.0         190859559.0         764828178.0        2918138424.0         736540625.0         272317999.0         166758548.0         310112982.0         201045826.0        1680231254.0         118290799.0         272317999.0         166758548.0         310112982.0         201045826.0        1680231254.0         118290799.0
Wiener process for Thermostat # 13       1 F T T   9.7554409384929153E-01        3627045108.0        1898589428.0        2752141753.0          85759421.0        2499273175.0        1137986601.0        2245755202.0        1652682525.0        2865544364.0         721509566.0         209733568.0         592362218.0        2245755202.0        1652682525.0        2865544364.0         721509566.0         209733568.0         592362218.0