 # Version information for this restart file 
 # current date 2022-11-29 21:33:25.648
 # current working dir /scratch/work/courses/CHEM-GA-2671-2022fa/wz2449/main/comp-lab-class/Week12/Runs/Proton
 # Program compiled at                              Sat Dec 12 18:27:15 EST 2020
 # Program compiled on                                         cs001.nyu.cluster
 # Program compiled for                                                nyu-intel
 # Source code revision number                                       git:8c64c6e
 &GLOBAL
   PRINT_LEVEL  LOW
   PROJECT_NAME proton_aimd_1ns_every0.5fs
   RUN_TYPE  MD
   WALLTIME 21600
 &END GLOBAL
 &MOTION
   &GEO_OPT
     OPTIMIZER  BFGS
     MAX_ITER  100
     MAX_DR     3.0000000000000001E-03
     &BFGS
     &END BFGS
   &END GEO_OPT
   &MD
     ENSEMBLE  NVT
     STEPS  2000000
     TIMESTEP     4.9999999999999994E-01
     STEP_START_VAL  2085
     TIME_START_VAL     1.0424999999999768E+03
     ECONS_START_VAL    -1.1027337638886459E+03
     TEMPERATURE     3.0000000000000000E+02
     &THERMOSTAT
       TYPE  GLE
       REGION  MASSIVE
       &GLE
         NDIM  5
         A_SCALE     1.0000000000000000E+00
         A_LIST     1.8595758612559999E+02    2.7263853498399998E-01    1.1526100454610001E+01   -3.6414578262600003E+01 \
             2.3173375816020001E+02
         A_LIST    -2.7809524712060002E-01    8.5951591808710006E-05    7.2189048017650004E-01   -1.9844539343859999E-01 \
             4.2409257583420001E-01
         A_LIST    -1.4825808131210000E+01   -7.2189048017650004E-01    1.3590902121280000E+00    5.1498896280349999E+00 \
            -9.9949268450990001E+00
         A_LIST    -1.0372189126880000E+01    1.9844539343859999E-01   -5.1498896280349999E+00    2.6661910891169999E+01 \
             1.1507715495310000E+01
         A_LIST     2.1801346360420001E+02   -4.2409257583420001E-01    9.9949268450990001E+00   -1.1507715495310000E+01 \
             3.0958394565589998E+02
         &THERMOSTAT_ENERGY
               8.1742420337064577E-03
               2.6304307268338180E-03
               9.5080975829243324E-04
              -1.4220062148067867E-03
              -1.0001931492730508E-02
              -4.3814470768649659E-03
              -9.0446835247241422E-03
              -3.2686179006991270E-03
               9.3004152384769008E-03
               1.0972730313719870E-03
               7.7932636635728407E-03
               9.2813942889858849E-05
              -1.1149921468942583E-02
               2.8229841405289797E-03
               9.9799352157210232E-04
              -7.3981305006801086E-03
               5.4673175363914037E-03
              -3.0587959255546195E-03
               3.4715872049207192E-03
               3.4633252639627728E-03
              -1.3266517938546689E-03
               8.2656191191920960E-04
              -7.7967906743137147E-03
               4.8362108901349292E-04
              -3.7128067400227691E-03
              -2.5868073771196558E-03
               8.1759706511922870E-03
               7.4831564546574457E-03
               4.8752498243665966E-03
               1.1552684816041887E-03
              -2.3631734813168875E-03
               5.8735257142353689E-03
               1.0270788210808798E-03
              -7.3483114016277508E-03
               7.6743922055181601E-03
               8.0060639610106225E-03
              -1.9841465886355236E-03
              -1.1021653584371673E-03
               5.2023823052725097E-03
              -4.7752578537896392E-04
              -3.6227181716444578E-03
              -3.2489519253788399E-03
               9.6182333579043766E-03
               4.9740389686802663E-03
               4.3831299056560068E-04
               5.6959041654244535E-03
              -5.8991199223732927E-03
               1.1693119644027871E-03
               5.1342611001919721E-03
               2.4202392561525825E-03
              -9.5320726522492207E-04
               7.6136719092629035E-03
              -8.8619679989572920E-03
              -8.9734112655464673E-03
              -6.6775023280458224E-03
              -1.5300659473365772E-03
               2.2572848051957287E-03
              -7.8749159970931248E-03
               1.3798512641322275E-03
               1.3690231066901497E-02
              -1.2428196816925589E-02
               3.7279613341329398E-03
               1.8178636416034757E-02
              -9.3697560616475273E-03
               1.2690658033405909E-02
               6.4381686674706571E-03
               2.0219731023424035E-03
               7.8664351882777143E-03
              -1.1668339633749563E-03
               2.6888646513864974E-02
               3.2638782496715426E-03
               2.4628921075030667E-02
              -6.1159143762740615E-03
               2.0344314554332510E-04
              -4.7335459898993132E-03
              -7.7191133333552910E-03
               6.8331008308758689E-03
               5.1003636547271164E-03
               7.9169401581872991E-03
              -4.0461918185220195E-03
               7.2683352142195387E-03
              -5.1115754022362297E-03
               7.8112612276843678E-03
               1.1822567470113714E-03
               6.0484433536607957E-03
               8.0602821904024579E-03
              -4.1495220792233303E-03
              -1.2832826423282971E-03
              -1.0402972019725363E-03
              -1.0329893446984059E-03
               4.0163261222341323E-03
              -5.8529738197765782E-03
              -1.6352089685062201E-03
               3.6022903531720794E-03
               3.4756233715662883E-03
              -5.6324774709163479E-03
               5.9998327184039471E-04
               5.4579463950632867E-03
               8.3096372582928731E-03
               3.9329233041106842E-03
              -1.1898313104073055E-03
               6.8035359044668517E-05
              -2.6245376708841088E-03
               7.6203944701272088E-03
              -7.5582708537264990E-03
               6.8115537673540437E-03
               8.0333223235669240E-03
              -2.0540285869479541E-03
               8.8245077203017580E-03
              -1.9387738565105016E-03
               2.3184247276401546E-03
              -2.5192488089188989E-03
               2.0416829694622119E-03
               4.1774990752030568E-03
              -8.4834579926444729E-04
              -9.8075734627680640E-05
              -8.2503590772205499E-03
               2.1349772928431904E-03
               1.0354451964125081E-03
               7.5836078985233081E-04
              -8.3731280842489961E-04
              -7.5052653790848014E-03
               3.4768619429340832E-03
              -2.5309650249900838E-03
               5.3174622868103318E-03
              -1.5605764797974860E-03
               8.0170370289941451E-03
               4.5062388240578273E-03
               3.2004974674056707E-03
               6.5646747068621551E-03
              -5.3531536105184963E-03
               4.3505997402726992E-03
               8.1720830875990592E-07
              -6.3980628139759504E-03
               1.3703824329849522E-03
               3.6522600294329427E-03
              -6.6275608707194820E-04
              -5.9134943523842442E-03
               1.1642636246604408E-02
              -1.3109254756206173E-02
               2.8322369727233638E-03
               1.1594758886279543E-03
               6.6342911094994864E-03
              -1.8552562430059470E-03
              -4.2389618029452991E-03
              -8.2009250267367616E-03
               1.3705325906246534E-02
               9.7969906265756365E-05
              -8.0236489721813107E-03
               7.7317580148045040E-03
              -6.0545374282483981E-03
               4.8879928200487267E-03
              -7.7489579360503717E-03
               3.0742425331204020E-03
               5.1203243869498557E-03
               2.9655141568770365E-04
               3.3409174024879827E-03
               1.2591951937952132E-04
              -5.2792361987790614E-03
               4.2084224630581594E-03
              -4.6359073265597305E-03
              -7.7082580644319909E-03
              -2.1951668775308704E-04
              -9.1793482722709750E-04
               7.6239310240083982E-03
               1.4946031937446346E-02
               2.5345831673414818E-03
              -2.6767311908037533E-02
               4.7575074561671702E-03
              -7.9036216729943265E-03
              -6.3691579672679819E-04
              -1.4480978982645107E-04
               4.6991905373252093E-03
               3.0808309937882211E-03
               2.0606643096193929E-03
               2.3635567861899482E-02
               1.6987162295064834E-02
              -6.9721271883156318E-04
              -4.9863280316011036E-03
               3.0944311163550765E-03
               1.5170189313768638E-03
               1.4022198108027408E-03
               1.8055439718543898E-02
              -4.3947504474752402E-03
               1.4355977008243849E-03
              -3.5530081803407066E-03
               5.7663150692422891E-03
              -1.7480055112622020E-03
              -2.9764018936568734E-03
              -3.3534786015015240E-03
              -6.2804144773237940E-03
               9.5868901216220222E-03
               6.9512638571245407E-03
              -1.2342538113160428E-03
               4.5114720092677115E-03
              -1.8815721288845369E-03
              -5.2322455996743119E-03
               5.7182001618561844E-03
              -6.6387907771368977E-03
              -9.4703625222568762E-03
               1.2871783412948307E-02
              -2.4703948633777238E-03
              -1.9603554849168506E-03
               4.4900227973135778E-03
              -3.8436047168424184E-03
              -6.4979273715863933E-03
              -2.6639103124170152E-03
              -1.5892031728880038E-03
              -3.7495182064315714E-03
               1.5326588940562031E-02
              -4.2334201529253303E-03
              -6.0556915888173798E-04
               3.7258770477675519E-03
               5.7753171737102548E-03
              -5.9433503847384174E-03
               2.2406182324320534E-03
              -1.0781855085437851E-02
               4.8264420253181688E-03
              -5.2825468430220332E-03
               2.5089594274714851E-03
               4.3903046103810897E-03
              -4.3926065579017147E-03
              -9.1837111985712417E-03
               4.5966220606759580E-03
               9.2654183353368513E-03
              -1.2311176843201665E-02
              -1.4805299906907204E-03
               2.4747163132331253E-03
              -5.6549457011975156E-03
               2.8657068235593405E-03
               1.0712773891440102E-03
               3.1036549611761777E-03
               1.2759522226911324E-02
               9.8074495944518647E-04
               9.8558682563843446E-06
              -5.5546070424932334E-03
              -1.4888898527577198E-02
               1.0213417596046945E-03
               3.0536017509083654E-04
              -2.5586167968397085E-03
               5.2889658754373082E-03
               7.2716354670875061E-03
               1.4577158038241644E-03
              -4.7217451794848804E-03
              -6.3103642253774439E-03
              -1.0171462620141899E-03
               6.5364874220055985E-05
               3.5246923732012379E-04
               1.1798469450152659E-03
              -2.5275021314748502E-03
               6.0750572988159616E-03
              -3.2996163034279967E-03
              -9.9194585158686177E-03
              -1.0316001012402116E-02
               5.9532642419575892E-03
              -7.2974878322353111E-03
              -6.0420946354078162E-03
              -7.9571362945168590E-05
              -7.1357127512727487E-03
              -6.2225778950572254E-03
               9.8033165953658446E-03
               1.0676070052629130E-02
               2.3501855696966630E-03
               1.2296496003048603E-04
              -3.5073336479566359E-03
              -1.5752749077331924E-03
               2.7209634773647899E-03
              -5.7476719179727891E-03
              -1.3390943346597839E-03
               1.2958357834341534E-02
               7.7582819491076394E-03
              -1.0133011039230710E-02
               3.7691094909490303E-04
               3.1292512727872329E-03
               2.4400687460323124E-03
              -2.0243481626916050E-03
              -1.6732569364804859E-02
               1.4360634154662703E-02
               2.3032616510445018E-03
              -2.1741576320856585E-03
              -1.1321516404923192E-02
              -2.3898634040642587E-04
              -1.8970586575543370E-03
               4.6834560917371404E-03
              -5.6507904086744365E-03
              -1.4086475590544165E-02
               1.5328300068896355E-02
               2.8364403229767603E-04
              -1.0815572712177309E-02
               5.5680213413890926E-03
               9.5841832320791472E-03
               2.1810482713926593E-03
              -4.7781036713631184E-03
              -3.6475500823917348E-03
               8.6707656552139547E-03
               7.2865931045396643E-03
              -2.0512266013488774E-02
               1.9456064755175799E-02
               1.4714177036028845E-02
              -1.2597392077796072E-02
               3.3877915013539898E-03
              -4.4523264979015430E-04
               6.7169698433223865E-03
               1.4173492920025581E-02
               1.4599662378082948E-02
              -1.2692280191981738E-02
              -5.2696269426673048E-03
               6.2851816695763474E-03
               2.5631550584312127E-03
               6.2742054601559339E-03
              -6.9617032577083075E-04
              -6.0783686323417603E-03
               2.4568405679932484E-03
               4.7345269661501245E-03
               3.1305522477298362E-03
              -4.2527655634113180E-03
              -3.7843126283866029E-03
               2.4253197710758236E-04
              -1.8211419103774627E-02
              -5.6499658942555080E-03
              -8.1087140931136313E-04
               1.2390294251672186E-02
              -1.3124798619313018E-03
              -9.2709452843570247E-04
              -2.1463997570024930E-03
               2.2984879695961819E-02
               1.7687021164682908E-03
               4.2438986156220623E-03
              -3.2305565204301234E-03
               7.0189464858871399E-04
              -7.7058255797830717E-03
               6.8932355261095563E-03
               1.3650529079952446E-03
               2.8922138571496462E-04
               7.0205902719715886E-03
              -7.1568363805860910E-03
              -3.3237171520697061E-03
              -1.1317640162801929E-03
               3.5644801743316074E-03
              -2.6730713294183917E-04
              -5.9802565147388902E-03
              -3.1973560761762174E-03
               8.4863564912206341E-03
               7.8534295288074270E-06
               8.2716564410663419E-03
               5.4445869424362371E-03
               5.0376186788342117E-03
              -1.2954010710987601E-02
               9.9957305107097917E-03
              -1.6835417389511184E-03
              -3.2299693638796591E-03
               4.1601101572127739E-03
              -1.3185760094695556E-02
               2.9326840032299841E-03
              -1.0643408704501946E-03
               4.6721716945899308E-03
               6.3581412638716653E-03
              -6.4475526554015165E-03
              -1.1943061329972157E-02
               5.1049376735032457E-03
              -3.9301755619039550E-03
              -1.2426256785811388E-02
               2.5230331263499928E-02
               3.1479177872387778E-04
              -6.0366786854396332E-03
              -4.6608534217070143E-03
               1.0536636681100520E-02
              -7.9037074496083519E-05
              -8.9825854283138856E-03
              -4.1256973671698720E-03
              -2.9980734498208231E-04
               9.2458590461464915E-03
               2.4330985727168773E-03
              -1.0122652570263555E-03
               2.6767819223512527E-03
               7.0550553234026755E-03
              -1.1002096258325574E-02
              -1.4940509448143425E-02
               3.2919607571903105E-03
               1.0684419983262462E-02
               2.7809579045133710E-03
              -1.7874017214261047E-03
              -8.0610476281525508E-03
              -9.1998234734493067E-04
              -1.8111109894145744E-02
               6.8417562551204873E-03
               2.5753936354666568E-03
               5.9438512332141949E-04
               4.1175061610667155E-07
               6.8585071482787970E-03
              -3.7170412390517740E-03
               5.5630856024301975E-03
               2.3193748910464310E-03
              -7.4946082094512903E-03
               1.1016876530594709E-02
              -5.4511124220745283E-03
               6.6023080486519231E-03
              -6.5387033720183821E-03
               7.2722072015645742E-03
               3.0148796942184460E-03
              -6.3678421356152658E-04
              -1.4003990955087885E-04
              -5.6933396636184271E-03
              -1.1471780918304499E-02
               2.7964454710848229E-03
              -1.0709934706845375E-02
               2.0886131771241656E-03
               4.5317358124249167E-03
              -5.1963425478854285E-04
              -5.8369800997668865E-04
              -1.3104166269548155E-03
              -5.8588344220152780E-03
               1.4051351707223774E-02
              -6.0252177162764655E-03
               1.9657648842904387E-03
               5.3618254694271922E-03
              -4.5262329416222678E-03
               2.7502760281308799E-03
               6.4429392775504802E-04
              -3.2908391978232160E-03
              -8.2202363109565573E-04
               1.0935791888730359E-02
               1.6422010302445517E-04
               8.6407952170299647E-04
               6.0213607992989429E-03
              -2.0525277559124326E-03
              -3.2900922283714523E-04
              -7.4583511827860062E-03
              -2.4985335009603113E-03
              -5.8988209014157380E-03
              -1.6535947571731761E-03
              -8.1575017170943537E-03
              -8.5429881567549455E-03
               6.2796599298853301E-03
               1.4888636279850367E-02
               9.3494858946889612E-04
              -1.0431735828736823E-02
              -1.6016229132519125E-03
              -1.1142231888782762E-02
              -8.3302241722201659E-03
               1.1199193098953356E-02
              -4.1073747864001460E-03
              -4.6706654375914543E-04
               8.1541799914916519E-03
               1.8269836068510465E-03
               9.9769860023392835E-03
               2.6256632722885167E-03
               1.6540222300287854E-02
               6.2301144571444622E-03
              -1.0777746734176630E-02
              -3.4766141778435505E-03
              -1.2405595566096753E-02
               1.0801273066434578E-02
              -1.9553171612771213E-03
               1.7872347844623661E-03
              -3.0455171534602343E-03
              -1.3016532845138772E-02
              -2.0534791386576191E-02
               1.3240637074747463E-02
               9.8257508938188565E-04
               1.6685851069645329E-02
               4.7821108430576055E-03
              -1.9671520352850737E-03
               1.0941475803393948E-02
               7.0600322986584668E-03
              -7.3513526186509762E-03
              -8.4085842858755058E-03
              -1.1198057915425684E-03
               1.0218066141232131E-02
              -1.0309237720060968E-02
              -2.2603972930169969E-03
              -1.6951781636457258E-03
               4.7045871079157359E-04
              -5.9119321348851169E-03
              -6.5450279605693898E-03
               2.8303512419621275E-03
               3.6037261939988003E-03
               1.0244441152591452E-02
               9.8174740498359475E-03
              -9.9230808598365881E-03
              -2.9833740084167395E-03
              -1.0541492706776205E-02
               3.1553532301420149E-03
               8.2455800852493334E-04
              -4.9381393110515572E-04
              -9.4071297328835823E-04
               1.3462707669962490E-03
              -1.7342059939569822E-03
               1.8001240448775633E-02
              -6.0357067662671255E-04
               8.6440315575138579E-03
               6.1382944318249871E-03
               3.9010952167971736E-04
              -1.9826931465066217E-03
              -3.3151295171727369E-03
               9.0149349813381399E-04
               4.5915553619885682E-03
              -4.2420562224560771E-03
              -4.9510092338019636E-04
               1.1739525354975895E-02
              -1.7223478936003985E-03
               1.3893432019787946E-02
              -1.8706667239449415E-02
               1.6567240775116551E-02
               1.3333794420264406E-02
              -1.7841689319083781E-02
              -1.2880910772662275E-02
               1.8752195353116776E-03
               7.6546898263061937E-03
               3.1055613276887019E-03
              -3.3557256506576310E-03
               5.2912238595617658E-03
              -7.3397526903364197E-03
               6.7880195067462606E-03
               3.9857276795738760E-03
              -2.1875043061745213E-02
              -1.3472646346718979E-03
               6.9402420478018581E-03
              -1.9644931546371749E-03
              -8.9701377039433480E-04
              -7.3911713588568542E-03
              -6.9118363169458769E-03
               9.8686395862658104E-03
               2.4632485428564936E-03
               4.6245801220026419E-04
               4.3780016695968392E-03
              -2.2425010519676893E-03
              -3.4698286118946915E-03
              -3.9883425967253555E-03
              -9.6180804028683602E-05
               9.4220452080372025E-03
               9.2865300652826832E-03
              -9.9624802272980650E-03
              -1.0584116522093472E-02
               4.0561298872302601E-03
              -1.6767215153609188E-03
               6.5977558261273912E-04
               6.8754427939974406E-03
               3.4397084183431315E-03
              -2.4088271689499201E-03
              -1.5432885762170194E-04
              -2.6139380997339031E-03
              -2.7546907349429803E-03
              -1.0866173018646416E-03
               6.2309069151458250E-03
              -2.7800525620534466E-03
               1.4735955915384274E-02
              -5.2057256224264249E-04
               2.8379945181723019E-03
               1.3369016072111474E-03
              -4.0173355298757183E-03
              -4.4960995287196123E-03
              -2.7627050961562976E-04
              -4.2871070945975018E-03
              -4.1116595825735772E-03
               4.8556076124385463E-04
              -2.8806405269919384E-04
               4.2248271433399147E-05
               1.1534666080902074E-02
              -4.2342614952818733E-03
              -1.8984507163116509E-03
               4.8469897827068632E-03
               5.4501044745719420E-04
               8.5846979383479862E-04
              -1.0945796199612362E-02
              -4.2170823211291645E-03
               1.1485865402276621E-03
              -2.8427222559501406E-03
              -5.9876832027783667E-03
               9.0777145598367973E-03
              -8.7092606590398539E-03
              -8.5453817123102324E-04
              -1.4140465964778189E-03
              -5.7620939389118799E-03
              -1.1194322044317715E-03
               6.4650647119085108E-03
               8.7785349697917757E-03
               5.1412732548421526E-03
              -5.1377620594741632E-03
         &END THERMOSTAT_ENERGY
         &RNG_INIT
Wiener process for Thermostat # 1        1 F T T   1.5683610209653944E+00        1315610114.0        2679597989.0        3615908442.0         896058754.0        4294739667.0         214139411.0             12345.0             12345.0             12345.0             12345.0             12345.0             12345.0             12345.0             12345.0             12345.0             12345.0             12345.0             12345.0
Wiener process for Thermostat # 2        1 F T T   7.6342585100753324E-01        3391453930.0        3627491022.0         814691649.0         764633181.0        4006166081.0        1760990408.0        3692455944.0        1366884236.0        2968912127.0         335948734.0        4161675175.0         475798818.0        3692455944.0        1366884236.0        2968912127.0         335948734.0        4161675175.0         475798818.0
Wiener process for Thermostat # 3        1 F T T  -1.3077195522733593E+00         886295458.0         357351603.0        1487228674.0        3737038188.0        3625863979.0         293063577.0        1015873554.0        1310354410.0        2249465273.0         994084013.0        2912484720.0        3876682925.0        1015873554.0        1310354410.0        2249465273.0         994084013.0        2912484720.0        3876682925.0
Wiener process for Thermostat # 4        1 F T T   9.6693558943528313E-01        2502172988.0        3966998099.0         887107723.0        4118577430.0         205327751.0        1008007854.0        2338701263.0        1119171942.0        2570676563.0         317077452.0        3194180850.0         618832124.0        2338701263.0        1119171942.0        2570676563.0         317077452.0        3194180850.0         618832124.0
Wiener process for Thermostat # 5        1 F T T   7.8482025136731026E-01        3228980319.0        4235089525.0         851831210.0        2778405786.0         327178009.0        2175526941.0        1597262096.0        3906379055.0        3312112953.0        1016013135.0        4099474108.0         275305423.0        1597262096.0        3906379055.0        3312112953.0        1016013135.0        4099474108.0         275305423.0
Wiener process for Thermostat # 6        1 F T T  -1.2589612344160301E+00        3791965870.0        1623270581.0        2299728740.0        3766363580.0         920524250.0         590234542.0          97147054.0        3131372450.0         829345164.0        3691032523.0        3006063034.0        4259826321.0          97147054.0        3131372450.0         829345164.0        3691032523.0        3006063034.0        4259826321.0
Wiener process for Thermostat # 7        1 F T T  -5.4749687831569283E-01        3940296740.0        2906678406.0        3373881684.0         850925084.0        2746878564.0        3841579342.0         796079799.0        2105258207.0         955365076.0        2923159030.0        4116632677.0        3067683584.0         796079799.0        2105258207.0         955365076.0        2923159030.0        4116632677.0        3067683584.0
Wiener process for Thermostat # 8        1 F T T  -1.0904604570587133E+00        1980249127.0         568556124.0        3831747678.0        1691993339.0        3095450952.0        1794253355.0        3281794178.0        2616230133.0        1457051261.0        2762791137.0        2480527362.0        2282316169.0        3281794178.0        2616230133.0        1457051261.0        2762791137.0        2480527362.0        2282316169.0
Wiener process for Thermostat # 9        1 F T T  -1.0158727993108454E+00        2630248493.0         698614653.0        2886037571.0        3978978813.0          90066443.0        3447909573.0        3777646647.0        1837464056.0        4204654757.0         664239048.0        4190510072.0        2959195122.0        3777646647.0        1837464056.0        4204654757.0         664239048.0        4190510072.0        2959195122.0
Wiener process for Thermostat # 10       1 F T T   9.5005120648332808E-01         705255476.0        3621830963.0        3441239288.0         213100524.0        4183730400.0        2632639939.0        4215590817.0        3862461878.0        1087200967.0        1544910132.0         936383720.0        1611370123.0        4215590817.0        3862461878.0        1087200967.0        1544910132.0         936383720.0        1611370123.0
Wiener process for Thermostat # 11       1 F T T   3.8047494357564321E-01        3051088453.0        4095022800.0        3643336851.0        2368819143.0         566014697.0        3218269572.0        1683636369.0         362165168.0         814316280.0         869382050.0         980203903.0        2062101717.0        1683636369.0         362165168.0         814316280.0         869382050.0         980203903.0        2062101717.0
Wiener process for Thermostat # 12       1 F T T   1.0013421350721547E+00        1668682071.0        2653312712.0        4231881009.0        2910665715.0          30987409.0        3260741079.0         272317999.0         166758548.0         310112982.0         201045826.0        1680231254.0         118290799.0         272317999.0         166758548.0         310112982.0         201045826.0        1680231254.0         118290799.0
Wiener process for Thermostat # 13       1 F T T   1.0533852914163588E+00         977300146.0        2007940134.0        4256953584.0        2123926113.0        2531572613.0         340023290.0        2245755202.0        1652682525.0        2865544364.0         721509566.0         209733568.0         592362218.0        2245755202.0        1652682525.0        2865544364.0         721509566.0         209733568.0         592362218.0