 # Version information for this restart file 
 # current date 2022-11-29 21:33:32.880
 # current working dir /scratch/work/courses/CHEM-GA-2671-2022fa/wz2449/main/comp-lab-class/Week12/Runs/Proton
 # Program compiled at                              Sat Dec 12 18:27:15 EST 2020
 # Program compiled on                                         cs001.nyu.cluster
 # Program compiled for                                                nyu-intel
 # Source code revision number                                       git:8c64c6e
 &GLOBAL
   PRINT_LEVEL  LOW
   PROJECT_NAME proton_aimd_1ns_every0.5fs
   RUN_TYPE  MD
   WALLTIME 21600
 &END GLOBAL
 &MOTION
   &GEO_OPT
     OPTIMIZER  BFGS
     MAX_ITER  100
     MAX_DR     3.0000000000000001E-03
     &BFGS
     &END BFGS
   &END GEO_OPT
   &MD
     ENSEMBLE  NVT
     STEPS  2000000
     TIMESTEP     4.9999999999999994E-01
     STEP_START_VAL  2086
     TIME_START_VAL     1.0429999999999766E+03
     ECONS_START_VAL    -1.1027337638886459E+03
     TEMPERATURE     3.0000000000000000E+02
     &THERMOSTAT
       TYPE  GLE
       REGION  MASSIVE
       &GLE
         NDIM  5
         A_SCALE     1.0000000000000000E+00
         A_LIST     1.8595758612559999E+02    2.7263853498399998E-01    1.1526100454610001E+01   -3.6414578262600003E+01 \
             2.3173375816020001E+02
         A_LIST    -2.7809524712060002E-01    8.5951591808710006E-05    7.2189048017650004E-01   -1.9844539343859999E-01 \
             4.2409257583420001E-01
         A_LIST    -1.4825808131210000E+01   -7.2189048017650004E-01    1.3590902121280000E+00    5.1498896280349999E+00 \
            -9.9949268450990001E+00
         A_LIST    -1.0372189126880000E+01    1.9844539343859999E-01   -5.1498896280349999E+00    2.6661910891169999E+01 \
             1.1507715495310000E+01
         A_LIST     2.1801346360420001E+02   -4.2409257583420001E-01    9.9949268450990001E+00   -1.1507715495310000E+01 \
             3.0958394565589998E+02
         &THERMOSTAT_ENERGY
               8.1801335848180889E-03
               3.2437754551616475E-03
               3.9970718374178395E-04
              -1.4826826294914168E-03
              -9.8525225689459570E-03
              -4.3629426517210529E-03
              -9.0808236688759095E-03
              -3.4021013797344048E-03
               9.0512879986850078E-03
               9.8754466919314678E-04
               7.0815491682996654E-03
               3.4928103245586439E-05
              -1.1700057652465368E-02
               2.5793977846234523E-03
               5.8553754519414213E-04
              -7.3811855671578209E-03
               5.4367526641342645E-03
              -3.0220452525529878E-03
               3.4536371755376394E-03
               3.3456152309607099E-03
              -2.7327870295392612E-03
               6.2883286825483181E-04
              -7.9458570354247141E-03
              -2.0451472094694932E-05
              -3.7388119438773234E-03
              -2.5949391787406422E-03
               8.1475732717866539E-03
               7.4935740556778306E-03
               4.8264306821232950E-03
               9.8813114660270302E-04
              -2.3087127205503985E-03
               5.1817173887396860E-03
               1.1588288326249503E-03
              -7.0446747449300472E-03
               7.3048648475820474E-03
               7.8234560409628610E-03
              -1.8336957706596333E-03
              -1.4217571341803537E-03
               6.0685270002106880E-03
              -3.8515649460268530E-04
              -2.8686328712701162E-03
              -3.9615379316530787E-03
               1.0066855608578092E-02
               5.2699675629437909E-03
               4.1924608039057263E-04
               5.5725803935196766E-03
              -6.1062302689401408E-03
               1.4460268224092171E-03
               6.3586998636966088E-03
               2.8878066862487858E-03
              -1.3904101890103520E-03
               7.7190538140493705E-03
              -8.8795651012689783E-03
              -9.0581644010710241E-03
              -6.6037079388102981E-03
              -1.6991672375230038E-03
               2.4485737597586591E-03
              -8.2832700852466749E-03
               2.1731290758558782E-03
               1.3623490686543239E-02
              -1.2418248540972567E-02
               3.9504248754288571E-03
               1.8165840170657359E-02
              -8.5838002913526980E-03
               1.2678120874581729E-02
               6.4551988223718786E-03
               1.9441401688313018E-03
               7.4884103899965681E-03
              -1.0830131125114573E-03
               2.6808356757911340E-02
               3.2866316268821355E-03
               2.4769300174704040E-02
              -6.5405787772222987E-03
               1.4927006364461373E-04
              -4.7923836816867425E-03
              -7.3954774537929643E-03
               6.7202905057672496E-03
               6.0377121566773401E-03
               7.9448347247540619E-03
              -3.9295883739688831E-03
               7.4494269985331558E-03
              -5.6657799955768225E-03
               7.6753958902358406E-03
               9.4877467697252382E-04
               6.1707775740262360E-03
               8.5444139274810788E-03
              -4.2305791966833267E-03
              -1.6536035865839572E-03
              -7.0178991911137964E-04
              -9.7623128881033723E-04
               3.9375010331612597E-03
              -5.7670039770787926E-03
              -1.6278408238044970E-03
               3.8355646450497129E-03
               3.2437187248257025E-03
              -5.6340654558136123E-03
               7.7349431342362614E-04
               5.4536986739901518E-03
               8.0731615770900274E-03
               4.1293606304668318E-03
              -1.1541095409920649E-03
               5.7139004032966530E-05
              -2.9011489661129163E-03
               7.5173725623345474E-03
              -7.4976286774129635E-03
               6.8427959664960989E-03
               8.5389996852409025E-03
              -1.0710201480072668E-03
               8.8770936028940046E-03
              -1.9194245732409958E-03
               2.4645840535310790E-03
              -2.5286277524100573E-03
               1.9277438622981062E-03
               4.0722043994472152E-03
              -1.3424029773330772E-03
              -1.1924585589063999E-04
              -8.2911377321317498E-03
               8.2077138701175997E-04
               9.8623016923131586E-04
               7.9365256649600413E-04
              -1.4500785472622972E-03
              -7.4989967628997277E-03
               3.4743511436508465E-03
              -2.5606488404403592E-03
               5.2192032530220386E-03
              -1.7247533796015992E-03
               6.7419431362893897E-03
               5.3459233267984302E-03
               3.5489728447446857E-03
               6.1694904345694773E-03
              -5.5908380892037658E-03
               4.1847935857503363E-03
              -2.0300215023468275E-05
              -6.3502288640446313E-03
               1.3492623250402594E-03
               3.5341186599122244E-03
              -8.4776557190435926E-04
              -5.8349618103009909E-03
               1.1412952279036066E-02
              -1.3150309928039446E-02
               2.7647753674559790E-03
               1.0768987439552353E-03
               7.0693919272144931E-03
              -1.8733544674346019E-03
              -4.2513365822314441E-03
              -8.7255323587168612E-03
               1.3714655149655494E-02
               7.7478516302344837E-05
              -8.2058765716960143E-03
               7.6823522517824377E-03
              -6.4113807472140523E-03
               4.9618021718609989E-03
              -8.0659060776358590E-03
               3.1927911887072976E-03
               5.4532913088426024E-03
               2.9613885421126535E-04
               3.3876655136125281E-03
               2.0165577660460969E-04
              -5.5787656178265983E-03
               4.2536698531410204E-03
              -4.5539639113123731E-03
              -7.8869816629092426E-03
              -2.1374185993495813E-04
              -1.0232977942400787E-03
               7.2422089884038345E-03
               1.5015257654569058E-02
               2.5373163971469325E-03
              -2.7094964240571402E-02
               5.0636718609275381E-03
              -7.6842299166156990E-03
              -6.0208065703701232E-04
              -1.4835951665405719E-04
               4.7305145640728803E-03
               3.0896805197328440E-03
               1.9437943765130881E-03
               2.3398485713551537E-02
               1.6984607820775852E-02
              -6.4190861689930210E-04
              -5.0857594191066726E-03
               3.5408261771926290E-03
               7.1964067892196153E-04
               1.0100695668525447E-03
               1.7891307334547139E-02
              -3.7931835475617688E-03
               1.4789016528028930E-03
              -4.0993675836506639E-03
               4.7756517431545194E-03
              -1.9207778036507217E-03
              -3.0033747364985579E-03
              -3.1613482963603295E-03
              -7.1043650373633404E-03
               9.6084960402725936E-03
               6.9235121209054139E-03
              -1.2174939616674987E-03
               4.6140150304011043E-03
              -1.8167171739039887E-03
              -4.6531683705654959E-03
               5.9207691325118940E-03
              -6.7644192096850946E-03
              -8.1466326817743809E-03
               1.2741964228104004E-02
              -2.4369365329565385E-03
              -2.9888076397130777E-03
               4.5908138155236209E-03
              -4.3289785763137552E-03
              -6.8483334226619886E-03
              -3.6133497510362654E-03
              -1.6124671532754694E-03
              -3.3402435515230934E-03
               1.5311529820677175E-02
              -3.7682484809385321E-03
              -1.7687072981497083E-03
               3.7672869842374176E-03
               5.8071914131596668E-03
              -6.1415603180100227E-03
               3.2379852244809231E-03
              -1.0804456473614792E-02
               5.0617362386768568E-03
              -5.4324686151786634E-03
               2.5114139467586993E-03
               4.6242401386422877E-03
              -4.2103052897187725E-03
              -8.9255452954896015E-03
               4.5990478290908682E-03
               9.7969035527373759E-03
              -1.1011055726596986E-02
              -1.6853738687002883E-03
               2.4497225901289159E-03
              -5.8965394991116861E-03
               3.1571653283361555E-03
               1.7293997825119443E-03
               3.0139572320000809E-03
               1.2236314944829475E-02
               1.1046875838577257E-03
               8.4532126649434266E-04
              -5.2930120116750920E-03
              -1.4988605447516271E-02
               1.0435125613529519E-03
               2.3529101581887572E-04
              -2.6591991805775157E-03
               5.2808674865715277E-03
               7.3543123895813880E-03
               1.3888742541681529E-03
              -4.7642904941003171E-03
              -7.0375402134862271E-03
              -1.1826689350361128E-03
              -7.2356732531360097E-05
               2.6527862469990089E-04
               1.1879463787685357E-03
              -1.3095334984164005E-03
               6.3366055209432802E-03
              -3.2192721292204200E-03
              -9.8399063654798155E-03
              -1.0408019686540293E-02
               7.2560679035555088E-03
              -7.3150516791988486E-03
              -5.7756912632148947E-03
              -3.9769757915316816E-05
              -6.9984076066012335E-03
              -5.2754647570512772E-03
               1.0077650825890110E-02
               1.0594877806603642E-02
               2.1579328121282110E-03
               2.3202926269446112E-04
              -3.3873618688397156E-03
              -9.7877249658669943E-04
               2.6284991008173010E-03
              -5.7750145379627310E-03
              -7.1598351854872263E-04
               1.2781978523311373E-02
               7.5667987321599746E-03
              -1.0919888259978614E-02
              -7.0220499594242673E-06
               3.3801867868803689E-03
               2.4627643855267053E-03
              -2.0205771216697272E-03
              -1.6662084610409075E-02
               1.4176493257376086E-02
               2.0821656416968926E-03
              -2.0496626184484039E-03
              -1.1049413247902701E-02
              -2.3088352709207886E-04
              -2.6497244645337405E-03
               4.6287930990361716E-03
              -5.5509745338069606E-03
              -1.4049824665102222E-02
               1.5601645289469021E-02
               3.4277279073159455E-04
              -1.0892606940391486E-02
               5.6987164861872601E-03
               9.6205080643524520E-03
               2.4498729181662458E-03
              -4.7215132149236354E-03
              -3.8890056586912145E-03
               8.6421277048741602E-03
               7.2651781268542898E-03
              -2.0589181022052389E-02
               1.9453358846101051E-02
               1.4718713843387283E-02
              -1.1806533648442336E-02
               3.3696063101653117E-03
              -8.2123787522092010E-04
               6.8142099837802221E-03
               1.4106081272718543E-02
               1.5174657924822945E-02
              -1.2731216942347681E-02
              -5.2591683515415561E-03
               6.4349821157457096E-03
               2.6264466295374015E-03
               6.3994494780683139E-03
              -6.9945695121304886E-04
              -5.7996541866003233E-03
               2.3713263560105036E-03
               3.7802579769357133E-03
               2.2122913456074362E-03
              -4.3697788508338178E-03
              -3.6589362529303618E-03
               4.3986002847295710E-04
              -1.8071452007784556E-02
              -5.3758329195631891E-03
              -9.4968638722647174E-04
               1.2258076270151224E-02
              -1.4136816298771472E-03
              -7.0466286078393642E-04
              -2.1237305144945207E-03
               2.2892201675473234E-02
               1.6901424210287314E-03
               4.3174651143726775E-03
              -3.2368510036683350E-03
               6.6092986758502518E-04
              -7.6916650360960483E-03
               6.8551438023843458E-03
               5.2632459912908499E-04
               3.0024430190297231E-04
               6.9278032298184010E-03
              -7.3824183577664328E-03
              -3.3317480801085971E-03
              -9.4566035479589977E-04
               3.3493088261616634E-03
              -1.5265331018064223E-03
              -6.1627837472918133E-03
              -3.4426556718160878E-03
               8.9948321934246022E-03
               5.6761794814628162E-04
               7.6036392334489734E-03
               5.8669261494968305E-03
               5.2586856481550825E-03
              -1.2602749598816645E-02
               1.0001784024159235E-02
              -1.4206193946027300E-03
              -3.4595862915834403E-03
               4.4916005607715283E-03
              -1.3452476300620774E-02
               3.0573814267337803E-03
              -1.3172847351232723E-03
               4.1425191462533418E-03
               6.3290538725261671E-03
              -6.4767401255828617E-03
              -1.2200911828639818E-02
               5.3483442718010336E-03
              -3.8582709234656876E-03
              -1.3156682533913730E-02
               2.5000501338020890E-02
               1.5503837026952368E-04
              -5.9895549485838610E-03
              -4.6636134394743125E-03
               1.0642325863882378E-02
              -1.4620770907541807E-04
              -9.1606976153377415E-03
              -4.6341576073583926E-03
              -2.2616528720323056E-03
               8.9454307538821762E-03
               2.0927729845922412E-03
              -9.6851297825490627E-04
               2.7553418933087400E-03
               6.2568965102503303E-03
              -1.1013005384253077E-02
              -1.4871351436005285E-02
               4.6057831719238289E-03
               1.0525271214519995E-02
               3.5725021275835834E-03
              -9.5618423767649514E-04
              -8.0874726178890542E-03
              -1.0857467690707995E-03
              -1.8112646718578668E-02
               7.3016378579429629E-03
               2.9476255057114637E-03
               9.2523903268397023E-04
              -5.7069818115802556E-04
               7.1078232135201470E-03
              -3.7160107367806162E-03
               5.5577701403435476E-03
               2.3243319776250393E-03
              -7.2691601548141669E-03
               1.1573154264970988E-02
              -5.1866791964626504E-03
               6.3487398502297884E-03
              -7.5207127719045122E-03
               8.0040711379762638E-03
               2.6397410559211047E-03
              -3.8054689343257331E-04
              -1.6694355785258297E-04
              -5.6309395399511113E-03
              -1.1787047593671923E-02
               2.4330819415544621E-03
              -1.0016388010550267E-02
               2.2052760763423490E-03
               4.5480669373451181E-03
              -6.6592690949798458E-04
              -2.7306970687198702E-04
              -1.1155246488853592E-03
              -4.9084979905802536E-03
               1.4137655493019517E-02
              -5.9739717645082924E-03
               1.8194608730658850E-03
               5.0969962957476160E-03
              -4.9479175436908142E-03
               2.9255141035014428E-03
               7.6741321372044433E-04
              -3.2731150602922951E-03
              -3.3628330573335263E-04
               9.8505523220091106E-03
              -1.5412018889982452E-04
               9.5795670773717251E-04
               5.6150109667853689E-03
              -1.8455720722462118E-03
              -2.1371879519807048E-04
              -7.3546789619925714E-03
              -2.8375635306551023E-03
              -5.9095704344851938E-03
              -8.9925900773414049E-04
              -7.9924974599297951E-03
              -8.5644174329008779E-03
               6.4718231320105802E-03
               1.6027840189418101E-02
               5.9988798204386985E-04
              -1.2007995117233093E-02
              -1.1851175157977171E-03
              -1.1107074813446673E-02
              -8.4404662940302643E-03
               1.1235575866378227E-02
              -4.7548155138914675E-03
              -8.3190405428234474E-04
               8.2131795054950166E-03
               1.2139141587349811E-03
               9.9447506797819361E-03
               4.2489931736007080E-03
               1.6584885869476214E-02
               6.1676969536368911E-03
              -1.0843924088810020E-02
              -3.4376357997610465E-03
              -1.2300642634526262E-02
               1.0977263639787752E-02
              -1.9849925576390921E-03
               1.6804406442431576E-03
              -3.5015303407315819E-03
              -1.2611922451865659E-02
              -2.0556997867207921E-02
               1.3561994829803622E-02
               1.0422843631032028E-03
               1.6324521089510095E-02
               5.2318005111950169E-03
              -1.9351778647292283E-03
               1.0868896331930843E-02
               7.0104493525595842E-03
              -7.2297681053499077E-03
              -8.4497934688810006E-03
              -1.1174733694286369E-03
               1.0214597270161035E-02
              -1.0500400414359838E-02
              -2.6319056087606959E-03
              -1.4895800697841525E-03
               8.4406600337994485E-04
              -6.1561711224038919E-03
              -6.0358570743817355E-03
               2.8482045773336024E-03
               3.5655628451926689E-03
               1.0241923276836871E-02
               9.9272024756150452E-03
              -9.5163790804971213E-03
              -2.9869358659019830E-03
              -1.0556966043445902E-02
               3.4476057812038658E-03
               1.1150416850367550E-03
              -3.2210124408992848E-04
              -1.8379179217243558E-03
               1.3322494942819504E-03
              -1.8649761455770038E-03
               1.7662473040252587E-02
              -1.1542480166283884E-03
               8.8776535599707773E-03
               6.0348287600831222E-03
               7.9315161968760621E-04
              -1.6638745057033148E-03
              -3.2866768407869172E-03
               8.6120092246269521E-04
               3.7801550704830282E-03
              -4.1630735649846005E-03
               1.3260090850109315E-04
               1.1791673672626830E-02
              -1.1838002172739229E-03
               1.3214709399829333E-02
              -1.8687911046362929E-02
               1.6076775675998075E-02
               1.3126954487750456E-02
              -1.7451841531423495E-02
              -1.2957648526908902E-02
               1.6107447067564601E-03
               7.6719884635890172E-03
               3.1396670375268450E-03
              -3.3921901043073598E-03
               5.2802717524579853E-03
              -7.5543325758837855E-03
               6.7304320917978980E-03
               5.2531059754699575E-03
              -2.1980278217993070E-02
              -1.5415282471818996E-03
               7.5053906982491215E-03
              -1.4034507352100262E-03
              -9.8641338892715112E-04
              -7.3524916499193294E-03
              -6.3588627411363136E-03
               9.8527561558721423E-03
               2.5618810051692359E-03
               1.8179292265999784E-04
               4.4146903277517699E-03
              -1.8569323032890180E-03
              -3.0242120226512898E-03
              -4.1096787090380837E-03
              -1.2616898131175052E-04
               9.4127668194663068E-03
               8.8806113261235692E-03
              -9.9925890185004473E-03
              -1.0796151094751918E-02
               4.5037292500363542E-03
              -1.8766121229091127E-03
               6.9993748943901458E-04
               6.7136688467272611E-03
               3.3357743409100963E-03
              -2.0866585258815249E-03
              -3.6211553260941836E-04
              -2.7517814689436669E-03
              -2.5886668104639831E-03
              -9.8148526194819755E-04
               6.2279044654532534E-03
              -3.0257803165542512E-03
               1.4892758484824565E-02
              -3.0409547732264375E-04
               2.9345322602081633E-03
               1.4206028788416002E-03
              -4.1143600565219721E-03
              -4.4530210869810488E-03
              -1.7074832050509282E-04
              -4.5530349925651074E-03
              -3.8152942042070539E-03
               4.5522682594477154E-04
              -2.4286763853811544E-04
               7.9488987877966762E-06
               1.1521998797497501E-02
              -4.4965884177671726E-03
              -1.5209833874481626E-03
               4.8190462737428595E-03
               5.6594361854503622E-04
               8.6951839576250253E-04
              -1.0979925064473357E-02
              -5.0049570532146549E-03
               1.5991774242853315E-03
              -1.8123666383333377E-03
              -6.0109138778776123E-03
               9.0851727537839769E-03
              -8.8520454536842978E-03
              -1.6911604670572622E-03
              -1.1095625777853310E-03
              -5.4997706812071933E-03
              -1.2207712823840249E-03
               6.7072834600811837E-03
               8.8712920051083350E-03
               4.9200049834573802E-03
              -4.4659350801691438E-03
         &END THERMOSTAT_ENERGY
         &RNG_INIT
Wiener process for Thermostat # 1        1 F T T   7.2890913770570276E-01        2033755055.0         584255278.0        3464293331.0        2350234508.0        1324861610.0        4114545880.0             12345.0             12345.0             12345.0             12345.0             12345.0             12345.0             12345.0             12345.0             12345.0             12345.0             12345.0             12345.0
Wiener process for Thermostat # 2        1 F T T   2.1677566853841204E-01        1644925656.0        3783883328.0        1698466323.0         986066812.0         423254999.0        2310558511.0        3692455944.0        1366884236.0        2968912127.0         335948734.0        4161675175.0         475798818.0        3692455944.0        1366884236.0        2968912127.0         335948734.0        4161675175.0         475798818.0
Wiener process for Thermostat # 3        1 F T T  -1.1201199861671685E+00        4020634128.0        1586949643.0         694231839.0        1780593697.0         958670928.0        1207104668.0        1015873554.0        1310354410.0        2249465273.0         994084013.0        2912484720.0        3876682925.0        1015873554.0        1310354410.0        2249465273.0         994084013.0        2912484720.0        3876682925.0
Wiener process for Thermostat # 4        1 F T T  -2.7457542816806180E-01         209346413.0         204922729.0        1624639711.0         906289588.0        3440513108.0         917784392.0        2338701263.0        1119171942.0        2570676563.0         317077452.0        3194180850.0         618832124.0        2338701263.0        1119171942.0        2570676563.0         317077452.0        3194180850.0         618832124.0
Wiener process for Thermostat # 5        1 F T T  -3.6101922310888768E-01        3163508865.0         161419854.0        2087107033.0         274444500.0        2695117368.0        4136000382.0        1597262096.0        3906379055.0        3312112953.0        1016013135.0        4099474108.0         275305423.0        1597262096.0        3906379055.0        3312112953.0        1016013135.0        4099474108.0         275305423.0
Wiener process for Thermostat # 6        1 F T T  -7.8293855726704908E-01        3709008284.0        4155191064.0        3790764113.0        1838718720.0        3235901278.0        1428594494.0          97147054.0        3131372450.0         829345164.0        3691032523.0        3006063034.0        4259826321.0          97147054.0        3131372450.0         829345164.0        3691032523.0        3006063034.0        4259826321.0
Wiener process for Thermostat # 7        1 F T T  -1.5507343002369640E+00         136927897.0         366234771.0        2383703601.0        3940035063.0        3685116798.0        3459369271.0         796079799.0        2105258207.0         955365076.0        2923159030.0        4116632677.0        3067683584.0         796079799.0        2105258207.0         955365076.0        2923159030.0        4116632677.0        3067683584.0
Wiener process for Thermostat # 8        1 F T T   5.7991534768832542E-01        2771075115.0         194359672.0        3576979348.0        2078731624.0        2004977208.0        2311497185.0        3281794178.0        2616230133.0        1457051261.0        2762791137.0        2480527362.0        2282316169.0        3281794178.0        2616230133.0        1457051261.0        2762791137.0        2480527362.0        2282316169.0
Wiener process for Thermostat # 9        1 F T T   7.3688436668548718E-01         199657218.0        3312584793.0        2828708796.0        3358019933.0         203256090.0        1394501415.0        3777646647.0        1837464056.0        4204654757.0         664239048.0        4190510072.0        2959195122.0        3777646647.0        1837464056.0        4204654757.0         664239048.0        4190510072.0        2959195122.0
Wiener process for Thermostat # 10       1 F T T  -2.0335956673032904E-01        3724680369.0         754726253.0        3366694875.0        3877441369.0          27566729.0        1542282878.0        4215590817.0        3862461878.0        1087200967.0        1544910132.0         936383720.0        1611370123.0        4215590817.0        3862461878.0        1087200967.0        1544910132.0         936383720.0        1611370123.0
Wiener process for Thermostat # 11       1 F T T   1.2778810847503779E+00        3808270604.0        3697527520.0        1165532036.0        1737491886.0        1094351006.0        2839601869.0        1683636369.0         362165168.0         814316280.0         869382050.0         980203903.0        2062101717.0        1683636369.0         362165168.0         814316280.0         869382050.0         980203903.0        2062101717.0
Wiener process for Thermostat # 12       1 F T T  -3.5968953080334254E-01        2182953542.0        1294951110.0        3271164049.0        2810600152.0        1171695642.0        2400985819.0         272317999.0         166758548.0         310112982.0         201045826.0        1680231254.0         118290799.0         272317999.0         166758548.0         310112982.0         201045826.0        1680231254.0         118290799.0
Wiener process for Thermostat # 13       1 F T T  -1.1228191225380542E+00        2047670342.0        3376544214.0        4147576901.0          96858646.0        2544652093.0        3229159274.0        2245755202.0        1652682525.0        2865544364.0         721509566.0         209733568.0         592362218.0        2245755202.0        1652682525.0        2865544364.0         721509566.0         209733568.0         592362218.0